*Heading
 projects/square_bells_ucsb/mesh/square_bells_contact_balanced.inp
*NODE
1, -0.115, -0.5, 0
2, 0.115, -0.5, 0
3, 0.115, -0.1, 0
4, 0.16, -0.1, 0
5, 0.16, -0.215, 0
6, 0.56, -0.215, 0
7, 0.56, 0.255, 0
8, 0.16, 0.255, 0
9, 0.16, 0.1, 0
10, 0.115, 0.1, 0
11, 0.115, 0.5, 0
12, -0.115, 0.5, 0
13, -0.115, 0.1, 0
14, -0.16, 0.1, 0
15, -0.16, 0.255, 0
16, -0.56, 0.255, 0
17, -0.56, -0.215, 0
18, -0.16, -0.215, 0
19, -0.16, -0.1, 0
20, -0.115, -0.1, 0
21, -0.08625, -0.5, 0
22, -0.0575, -0.5, 0
23, -0.02875, -0.5, 0
24, -2.7755575615629e-17, -0.5, 0
25, 0.02875, -0.5, 0
26, 0.0575, -0.5, 0
27, 0.08625, -0.5, 0
28, 0.115, -0.46, 0
29, 0.115, -0.42, 0
30, 0.115, -0.38, 0
31, 0.115, -0.34, 0
32, 0.115, -0.3, 0
33, 0.115, -0.26, 0
34, 0.115, -0.22, 0
35, 0.115, -0.18, 0
36, 0.115, -0.14, 0
37, 0.1375, -0.1, 0
38, 0.16, -0.12875, 0
39, 0.16, -0.1575, 0
40, 0.16, -0.18625, 0
41, 0.21, -0.215, 0
42, 0.26, -0.215, 0
43, 0.31, -0.215, 0
44, 0.36, -0.215, 0
45, 0.41, -0.215, 0
46, 0.46, -0.215, 0
47, 0.51, -0.215, 0
48, 0.56, -0.168, 0
49, 0.56, -0.121, 0
50, 0.56, -0.074, 0
51, 0.56, -0.027, 0
52, 0.56, 0.02, 0
53, 0.56, 0.067, 0
54, 0.56, 0.114, 0
55, 0.56, 0.161, 0
56, 0.56, 0.208, 0
57, 0.51, 0.255, 0
58, 0.46, 0.255, 0
59, 0.41, 0.255, 0
60, 0.36, 0.255, 0
61, 0.31, 0.255, 0
62, 0.26, 0.255, 0
63, 0.21, 0.255, 0
64, 0.16, 0.21625, 0
65, 0.16, 0.1775, 0
66, 0.16, 0.13875, 0
67, 0.1375, 0.1, 0
68, 0.115, 0.14, 0
69, 0.115, 0.18, 0
70, 0.115, 0.22, 0
71, 0.115, 0.26, 0
72, 0.115, 0.3, 0
73, 0.115, 0.34, 0
74, 0.115, 0.38, 0
75, 0.115, 0.42, 0
76, 0.115, 0.46, 0
77, 0.08625, 0.5, 0
78, 0.0575, 0.5, 0
79, 0.02875, 0.5, 0
80, 2.7755575615629e-17, 0.5, 0
81, -0.02875, 0.5, 0
82, -0.0575, 0.5, 0
83, -0.08625, 0.5, 0
84, -0.115, 0.46, 0
85, -0.115, 0.42, 0
86, -0.115, 0.38, 0
87, -0.115, 0.34, 0
88, -0.115, 0.3, 0
89, -0.115, 0.26, 0
90, -0.115, 0.22, 0
91, -0.115, 0.18, 0
92, -0.115, 0.14, 0
93, -0.1375, 0.1, 0
94, -0.16, 0.13875, 0
95, -0.16, 0.1775, 0
96, -0.16, 0.21625, 0
97, -0.21, 0.255, 0
98, -0.26, 0.255, 0
99, -0.31, 0.255, 0
100, -0.36, 0.255, 0
101, -0.41, 0.255, 0
102, -0.46, 0.255, 0
103, -0.51, 0.255, 0
104, -0.56, 0.208, 0
105, -0.56, 0.161, 0
106, -0.56, 0.114, 0
107, -0.56, 0.067, 0
108, -0.56, 0.02, 0
109, -0.56, -0.027, 0
110, -0.56, -0.074, 0
111, -0.56, -0.121, 0
112, -0.56, -0.168, 0
113, -0.51, -0.215, 0
114, -0.46, -0.215, 0
115, -0.41, -0.215, 0
116, -0.36, -0.215, 0
117, -0.31, -0.215, 0
118, -0.26, -0.215, 0
119, -0.21, -0.215, 0
120, -0.16, -0.18625, 0
121, -0.16, -0.1575, 0
122, -0.16, -0.12875, 0
123, -0.1375, -0.1, 0
124, -0.115, -0.14, 0
125, -0.115, -0.18, 0
126, -0.115, -0.22, 0
127, -0.115, -0.26, 0
128, -0.115, -0.3, 0
129, -0.115, -0.34, 0
130, -0.115, -0.38, 0
131, -0.115, -0.42, 0
132, -0.115, -0.46, 0
133, -0.51966975365645, 0.043649304631295, 0
134, 0.50980378737816, 0.037457720095171, 0
135, 0.32482139022833, -0.17341792074899, 0
136, -0.34699584367032, -0.1708788863611, 0
137, 0.13146504565325, 0.081904399235823, 0
138, -0.12568622771141, -0.082134149750885, 0
139, -0.33201341189305, 0.21733397146277, 0
140, 0.32097700799048, 0.20162996674736, 0
141, 0.084398020635334, -0.11560813350614, 0
142, -0.086934313948671, 0.13444884337327, 0
143, 0.1417863274259, -0.079476527602766, 0
144, 0.16413055982901, -0.079790233251629, 0
145, -0.15633778049436, 0.079776954289667, 0
146, 0.16449454980434, -0.058698975169175, 0
147, 0.18230428292495, -0.057747900418537, 0
148, 0.082296237121561, 0.12308216240309, 0
149, -0.085414512008265, -0.11981494015151, 0
150, 0.16280879269108, -0.037696716932833, 0
151, 0.19053790103351, -0.037103450333173, 0
152, 0.14126192820946, -0.039434354300877, 0
153, -0.18679723563893, 0.12278849000305, 0
154, 0.18443603976608, 0.12152194244626, 0
155, 0.18410258499429, 0.10090265985465, 0
156, 0.20792381844014, 0.097357701054297, 0
157, -0.015231416582882, -0.4737305300198, 0
158, -0.00098453479889036, 0.47376650179998, 0
159, 0.085785894963233, -0.36818402041501, 0
160, 0.083951174820708, 0.3494511520778, 0
161, -0.18471614334539, -0.12760456681727, 0
162, -0.18309517965533, -0.10204431637589, 0
163, 0.21412644963593, -0.052832322746495, 0
164, 0.22516285635302, -0.036388102164946, 0
165, -0.077077608807996, 0.24095937434652, 0
166, 0.07596290760992, -0.24768291457491, 0
167, 0.062223978754427, -0.10445888544109, 0
168, 0.074930895546084, -0.082807097287481, 0
169, -0.087522647952367, 0.10268364246698, 0
170, -0.060766953965207, 0.10100910916533, 0
171, -0.061156729794938, 0.070948591299464, 0
172, -0.20604277782627, -0.10786257102378, 0
173, -0.20852479384237, -0.081265106504514, 0
174, -0.17862065676269, 0.096736976457026, 0
175, -0.2102115276101, 0.10703601990003, 0
176, -0.19850246890146, 0.084290492852561, 0
177, -0.23197211329644, 0.094572840937845, 0
178, -0.22108923832292, 0.069844399179885, 0
179, -0.25682675518749, 0.089991356353816, 0
180, -0.25244031072836, 0.053287753521104, 0
181, -0.29074994472383, 0.061979591420703, 0
182, -0.29963446822002, 0.031288961216552, 0
183, -0.32442303847343, 0.039752903689941, 0
184, -0.31149959875247, 0.0014550893554879, 0
185, 0.15936901937514, -0.016435622441561, 0
186, 0.1374819977607, -0.019077189174349, 0
187, -0.20544546684574, 0.04689681758967, 0
188, -0.07617394201358, -0.098685321871841, 0
189, -0.52409807136654, -0.043120450031082, 0
190, 0.51998136821378, -0.043882725237852, 0
191, -0.087176103716048, 0.073868944435139, 0
192, -0.062937824828226, 0.04392536479852, 0
193, -0.087322746100645, 0.04775100555732, 0
194, -0.064624238399356, 0.025713188217415, 0
195, -0.039146683025212, 0.037068653241391, 0
196, -0.04888316619778, 0.015605652212393, 0
197, -0.014516988264471, 0.025534402768907, 0
198, -0.23615745433713, -0.090936177459422, 0
199, 0.20319865604669, 0.070921966568421, 0
200, 0.2338757652335, 0.089548833008572, 0
201, -0.080717227148439, 0.3186144364866, 0
202, -0.073292165388918, -0.31676346762083, 0
203, 0.084318411405326, 0.2704383241022, 0
204, 0.23959952208625, -0.06155884198725, 0
205, 0.24631863535439, -0.035879256508709, 0
206, 0.083153845220394, 0.191294817245, 0
207, -0.084615515456201, -0.20534636763879, 0
208, -0.42018280761214, 0.20299033899195, 0
209, 0.41783864337374, 0.21325957602551, 0
210, 0.034337929160938, -0.08971718580869, 0
211, -0.34807406241507, 0.016136653314336, 0
212, -0.35038811730235, -0.016568854636412, 0
213, -0.0042816821800167, 0.049928697591616, 0
214, 0.20700023692108, 0.13187841383663, 0
215, -0.22388648238816, 0.12843808519935, 0
216, -0.36794661606843, 0.05286340899215, 0
217, -0.085407453945309, 0.018586032945015, 0
218, -0.11548884176051, 0.029005370641234, 0
219, -0.18373681507297, -0.076873836178199, 0
220, -0.25484965293531, 0.11785363106327, 0
221, 0.27162265974908, -0.06571592189938, 0
222, 0.27770596043798, -0.036268325768178, 0
223, -0.059704378603511, 0.13178913929899, 0
224, -0.03326362301992, 0.13059361839833, 0
225, -0.032476345082401, 0.15362246523339, 0
226, 0.031064700204509, -0.4705952867193, 0
227, 0.044962040420148, 0.47678005125133, 0
228, 0.020659079582086, 0.039118571890411, 0
229, -0.21159014617534, -0.053022397111641, 0
230, 0.15731961184668, 0.0048413833916186, 0
231, 0.13404661396083, 0.0032200716371297, 0
232, 0.17493171488041, 0.0044172036745708, 0
233, -0.18433839623796, -0.050505436709866, 0
234, -0.43678312850697, -0.17250530468929, 0
235, -0.38835520636458, 0.0043181109071251, 0
236, 0.41856194373554, -0.17622827559775, 0
237, 0.28190103521296, -0.0063781056289141, 0
238, 0.3166119036062, -0.0057001662511639, 0
239, 0.31315068658765, -0.037048704180796, 0
240, 0.3529914176598, -0.0049521240978391, 0
241, 0.31981672985273, 0.027376901198856, 0
242, 0.35458203826121, 0.027674366815435, 0
243, 0.35141236200177, -0.037071371382482, 0
244, 0.35806265436198, 0.061004238618738, 0
245, 0.39280457139913, 0.061823495414097, 0
246, 0.39045675407231, 0.030371844643466, 0
247, -0.084113439768929, 0.39461009255897, 0
248, -0.085168597750351, -0.39385526845294, 0
249, 0.1854568941022, -0.14634591770805, 0
250, -0.37611075373458, -0.03691766199992, 0
251, -0.026650453206489, 0.0019456403878485, 0
252, -0.098107553585162, -0.0070057218515852, 0
253, 0.021336520170125, -0.11431596279418, 0
254, 0.0028726584733448, -0.14740043228415, 0
255, 0.073489235759989, 0.098645832673371, 0
256, -0.04190931300771, -0.017854826077676, 0
257, 0.26380680532593, -0.096192831078287, 0
258, -0.32504615251025, -0.028035389801397, 0
259, 0.15885680536855, 0.031243761496593, 0
260, 0.36467170278306, 0.096384077821126, 0
261, 0.40260061890092, 0.096161905624987, 0
262, 0.11772854605309, -0.026428169410665, 0
263, 0.10531455898423, 0.0010265911425837, 0
264, -0.12204388809167, 0.0061152771811374, 0
265, -0.51951255081071, 0.13608874656602, 0
266, 0.51365235868252, 0.13482750585933, 0
267, 0.044437031152446, -0.16138924923799, 0
268, 0.0054194688156028, -0.19237204562246, 0
269, -0.23247461317231, -0.11979815748702, 0
270, -0.26555178312021, -0.1008178410477, 0
271, -0.025268295289414, -0.035339099759721, 0
272, 0.0010256511915361, -0.015825632969428, 0
273, 0.22662522174336, 0.062650107830794, 0
274, 0.34819270029404, -0.069147792170354, 0
275, 0.39118853002362, -0.068802647021494, 0
276, -0.001095508795468, 0.13142407554869, 0
277, -0.01236009902182, 0.16476868805916, 0
278, -0.26889066577444, 0.019244267542513, 0
279, -0.04051619343525, -0.044447056253602, 0
280, -0.42001625449795, -0.00011202893618209, 0
281, -0.42095137822766, 0.025184278191906, 0
282, -0.4172340752747, -0.038442881460126, 0
283, -0.38050798322371, -0.071757088985104, 0
284, 0.32855677407605, 0.096797956800228, 0
285, 0.1128295972597, 0.024430702914738, 0
286, 0.076371031417039, 0.02441417741187, 0
287, 0.060423170171166, -0.0051238140785819, 0
288, 0.062085418493542, 0.07609658129406, 0
289, 0.037166988874634, 0.086931300600164, 0
290, 0.18917264335151, 0.020732209849205, 0
291, 0.37266726180777, 0.13371285177431, 0
292, 0.1043983566875, -0.072388745421848, 0
293, -0.066464326719836, -0.13281861728072, 0
294, -0.21644241923713, -0.018472888024577, 0
295, -0.054796471199702, -0.03531980134069, 0
296, -0.12919536093055, -0.016421986661745, 0
297, 0.16617136564298, 0.079817804763513, 0
298, -0.2713592450177, -0.073869901256422, 0
299, -0.292303600644, -0.083491018368184, 0
300, 0.028182463193326, 0.14970113110477, 0
301, 0.4138710733814, 0.13362100426668, 0
302, 0.43934892550494, 0.093045613356748, 0
303, -0.10674477534836, -0.029143814802208, 0
304, 0.23598582050745, 0.20357033343433, 0
305, -0.24379377021421, 0.2187945595709, 0
306, -0.13869225835405, 0.037893825665746, 0
307, -0.14558637423037, 0.017396638552903, 0
308, -0.51823888093641, -0.12615478381151, 0
309, 0.51652574521457, -0.12967341832096, 0
310, 0.39260530348517, -0.034982893217414, 0
311, 0.43497706300894, -0.029249679514332, 0
312, -0.26439718949117, -0.13096573904404, 0
313, -0.024909695693032, 0.1928772982573, 0
314, 0.0031451975077317, 0.20929406930906, 0
315, 0.20307333807853, -0.0012748278538477, 0
316, 0.30229883181292, -0.099280354605126, 0
317, 0.25806141809375, -0.12843657591275, 0
318, 0.18563293143027, -0.10880182170302, 0
319, 0.041383381591574, -0.19842830328132, 0
320, 0.0060290715870352, -0.22871317306243, 0
321, -0.45030754360035, 0.0072338276757178, 0
322, -0.16024067095113, -0.053594495268944, 0
323, -0.059422460596981, -0.47040688737459, 0
324, -0.05768345832847, 0.47032156449909, 0
325, 0.34330967609219, -0.10149580942572, 0
326, 0.2616742111587, 0.077552344840073, 0
327, 0.26941579381569, 0.10743226576341, 0
328, 0.25205224111227, 0.05021069332772, 0
329, -0.015607382676679, -0.058714807822554, 0
330, -0.0092550394865598, 0.099857679442859, 0
331, 0.10042408957964, 0.046446422917979, 0
332, -0.44052311773682, 0.038468236799172, 0
333, -0.41942104427459, 0.06285756134455, 0
334, -0.44615157533499, 0.089690070751924, 0
335, -0.41229435091203, 0.11446296610831, 0
336, -0.41034557196753, -0.089000757820711, 0
337, -0.37176872731783, -0.11847628589258, 0
338, 0.23856541403897, 0.028812978509021, 0
339, 0.047831552625452, -0.067210797188767, 0
340, 0.063629410628613, -0.045025233215015, 0
341, 0.078058972933286, 0.43229428292019, 0
342, 0.087433843731645, -0.42883760957924, 0
343, -0.45630838498157, -0.074889627339658, 0
344, -0.19727609169057, -0.18436614493817, 0
345, 0.1295128217889, 0.045850311175156, 0
346, -0.046502254724681, -0.11966127175716, 0
347, -0.35626154613918, -0.085747199487239, 0
348, -0.062497084904734, -0.054562663256061, 0
349, 0.43502843390653, -0.064958858290473, 0
350, 0.036535506681604, 0.006190966834252, 0
351, -0.43368967162876, 0.14576025848018, 0
352, -0.1547389917964, 0.044620830055851, 0
353, 0.37580579944526, 0.17133741764035, 0
354, 0.060933481286534, 0.13395149028041, 0
355, -0.028787906699265, -0.19476927848831, 0
356, -0.024241431032657, -0.22936573986892, 0
357, 0.0048091197131554, -0.25423759498102, 0
358, -0.017275679798828, -0.26122840541862, 0
359, -0.0074705061731004, -0.29442990403249, 0
360, 0.43163638352271, -0.10129588928153, 0
361, 0.0281762895873, -0.27902057797608, 0
362, 0.03279174710672, -0.3275434426619, 0
363, -0.00028413868088115, -0.33242149052886, 0
364, -0.054208354852362, -0.23295827836976, 0
365, 0.45795591023292, 0.13367828064109, 0
366, 0.48229064225542, 0.096117764296559, 0
367, 0.45887718016194, 0.0529113076801, 0
368, 0.46559623311572, 0.17297274097322, 0
369, -0.18280017329061, -0.02336655929377, 0
370, 0.25676192652929, -0.15520057829345, 0
371, -0.20195293073819, 0.012381493084906, 0
372, 0.032618513803144, -0.36814436725804, 0
373, 0.0024150151753476, -0.3713043203524, 0
374, 0.0029962770890292, -0.40846979520031, 0
375, 0.031916621809945, -0.40500865574697, 0
376, -0.026456678638584, -0.37323739088756, 0
377, -0.026440225257186, -0.4088891240787, 0
378, -0.37666656244169, 0.13510990184317, 0
379, -0.39635466796905, 0.1658267941365, 0
380, -0.35066297151131, 0.14939508114397, 0
381, 0.080192907899352, -0.17193077816563, 0
382, -0.35553452336609, 0.10495692792506, 0
383, -0.32167143467014, 0.1292933714673, 0
384, -0.30746661879886, 0.17092573357044, 0
385, 0.2955136889103, -0.13196117965994, 0
386, -0.17061750530991, 0.031653077400041, 0
387, -0.18061332500787, 0.062021978025204, 0
388, -0.273636895157, 0.15710211219767, 0
389, -0.041565951908629, -0.086272905439044, 0
390, -0.22225016880848, -0.15087208320709, 0
391, -0.035388421614965, 0.22435445262135, 0
392, -0.0045546735057864, 0.23958368623365, 0
393, 0.023346197726894, 0.21979903417421, 0
394, 0.023748370437099, 0.24481145753281, 0
395, -0.008375949201669, 0.27381495006866, 0
396, 0.022955644833386, 0.27974913853836, 0
397, -0.010752619301058, 0.31114642925889, 0
398, 0.021635369124088, 0.31743798676113, 0
399, -0.013549079798726, 0.34975173612255, 0
400, 0.01941742909743, 0.35695991299757, 0
401, -0.018915080467441, 0.38620841796025, 0
402, 0.015112343343973, 0.40202426692571, 0
403, -0.0044769021537704, 0.42440770774192, 0
404, -0.025365234647206, 0.41693504781531, 0
405, 0.051811813320423, 0.39450441588629, 0
406, 0.053081187549746, 0.31598161817488, 0
407, 0.17372767753605, 0.05473163684342, 0
408, 0.19555351935982, 0.047276967000839, 0
409, 0.073218590931551, -0.28916574122181, 0
410, 0.28252579564422, 0.2118022016791, 0
411, 0.29801154494839, 0.16423321245632, 0
412, 0.26827209144539, 0.18520347183562, 0
413, -0.38772834820511, -0.15838653021744, 0
414, 0.29183836743751, 0.067085449609382, 0
415, 0.029185345432657, 0.06278882843444, 0
416, 0.0057716936978048, 0.072364084436003, 0
417, -0.47322584771167, -0.11974045091195, 0
418, 0.059994554128461, -0.40109012061653, 0
419, 0.05247655216936, 0.23976765263053, 0
420, 0.0039287713238847, -0.4421104151817, 0
421, -0.047133151163098, 0.33515558535565, 0
422, -0.28368640209215, 0.21700991056228, 0
423, 0.22217525846939, 0.16695955910999, 0
424, 0.37085716029644, -0.17560215369706, 0
425, -0.13506216118392, 0.057464102235029, 0
426, 0.14278581100495, -0.059254035287381, 0
427, 0.018472730804199, 0.11410791621062, 0
428, -0.085573972643762, 0.4305358045696, 0
429, -0.08629353072362, -0.43015071289512, 0
430, -0.084460475999374, -0.04245119268313, 0
431, 0.28096766991303, 0.13577520490255, 0
432, 0.32851053465488, 0.13804961888447, 0
433, -0.11210870282499, 0.052411587561662, 0
434, -0.11211366663542, 0.076419967052349, 0
435, -0.30467592637179, -0.17290872250818, 0
436, -0.29966939505936, -0.13553408414168, 0
437, -0.050440329814395, 0.37182206119933, 0
438, -0.082509436143751, 0.35647063237753, 0
439, -0.044738962930421, 0.2966838210015, 0
440, -0.52306443577273, 0.00060721113164399, 0
441, 0.51786589366669, -0.0012691673470687, 0
442, -0.082620853431401, -0.35631267296383, 0
443, -0.051110656536591, -0.34319015826583, 0
444, -0.19808970869204, 0.19296177028851, 0
445, -0.2293631113015, 0.17838348708359, 0
446, -0.056519233869913, 0.4390630353319, 0
447, -0.062340473792644, -0.002293947512004, 0
448, 0.37012330766891, 0.2111414691561, 0
449, -0.50685063482261, 0.083193300223749, 0
450, -0.13501122840836, -0.03864495223955, 0
451, 0.47580623766328, -0.095932673812329, 0
452, -0.057962096469277, -0.43845403246357, 0
453, -0.52261772300444, -0.084625587237813, 0
454, -0.47034015805186, 0.21027494295905, 0
455, -0.16101849337842, -0.077444977753845, 0
456, 0.28393828388767, -0.16640727054432, 0
457, -0.22511943713501, 0.027701768806738, 0
458, 0.038754928109515, -0.23706308645924, 0
459, -0.3109388032757, 0.097776658235985, 0
460, -0.069593793999434, 0.20484808338986, 0
461, -0.079475833745441, 0.27914445948969, 0
462, 0.081762820665193, -0.022794518217599, 0
463, 0.10049172480582, -0.041909745198468, 0
464, -0.033746420309545, 0.10079863955012, 0
465, 0.24485564122034, -0.0059800040054666, 0
466, -0.28751074492528, -0.043580939238154, 0
467, -0.31169408552962, -0.071982108876959, 0
468, -0.28001500251532, -0.0086935243408811, 0
469, -0.38845246231795, 0.083860681243988, 0
470, -0.035169074832124, -0.15814720812791, 0
471, -0.038813828615516, -0.30371306890804, 0
472, -0.041389486804683, 0.25915612524719, 0
473, 0.030957707762981, 0.44175747761755, 0
474, -0.080603322182117, -0.26779546896097, 0
475, 0.011109974618187, 0.014789213623874, 0
476, -0.15751298132564, -0.029895497724443, 0
477, 0.13161938003898, 0.025700757459653, 0
478, 0.28673513763359, 0.026340839144408, 0
479, -0.074873397053559, -0.021522532161807, 0
480, -0.45247258135281, -0.031497130206644, 0
481, 0.34385329314158, 0.16993049604642, 0
482, -0.24261928854093, 0.0041055337896017, 0
483, 0.4761047585032, -0.017808299599991, 0
484, 0.39171936843682, -0.0013785118425444, 0
485, -0.46941898474251, -0.17123310057372, 0
486, 0.46616004020245, -0.1751310952627, 0
487, 0.19155526744719, 0.1762375367299, 0
488, 0.22923210400528, -0.090021694567609, 0
489, 0.051764110303904, -0.13004948516327, 0
490, 0.12632242088652, -0.04113446819461, 0
491, 0.058962610897583, -0.46802680278829, 0
492, 0.067788331095145, 0.4742858738019, 0
493, 0.0038486091379166, -0.47212295294681, 0
494, -0.084512574135906, 0.16001813314904, 0
495, -0.39932996409092, 0.035904527047875, 0
496, -0.24224033183853, -0.062156646767422, 0
497, 0.015194565722671, 0.17950533984974, 0
498, 0.41856098720392, 0.17282191240971, 0
499, 0.069028020299081, -0.32993044848454, 0
500, 0.070865139279434, 0.047982315932847, 0
501, 0.14641819969088, 0.047594142678502, 0
502, 0.41834888329968, 0.062275900445141, 0
503, 0.38659798120576, -0.10235561904385, 0
504, -0.51880887762107, 0.16752142738577, 0
505, -0.070921396181567, -0.16256479234364, 0
506, 0.19696365024027, -0.17848101518342, 0
507, 0.055281454846664, 0.15764819999432, 0
508, 0.084108273973324, 0.15339470036331, 0
509, -0.029714171253103, 0.067818975727243, 0
510, 0.041948537696453, -0.027049166473887, 0
511, -0.18954044918056, -0.1551636410712, 0
512, 0.18164894882573, -0.011289067725548, 0
513, -0.34053080542994, -0.056579364295426, 0
514, 0.017445316706545, -0.050976006549265, 0
515, 0.015156979226317, -0.078213509098088, 0
516, 0.30864141389083, -0.067861914080635, 0
517, -0.20097802372346, 0.14979836406451, 0
518, 0.026405670325133, 0.47457283990926, 0
519, 0.078146852393971, -0.20924561423284, 0
520, -0.25026587890525, -0.034065505153303, 0
521, 0.18705086768937, 0.15128301831885, 0
522, 0.52111980786301, 0.088680030953957, 0
523, 0.25275062629322, 0.15189230403071, 0
524, -0.44654636962974, 0.17068514495649, 0
525, -0.029165044041675, 0.47259746603044, 0
526, -0.040063238208013, -0.47277665878158, 0
527, -0.13927356652726, -0.05996983535512, 0
528, 0.1469564045548, 0.081971180119168, 0
529, 0.045687508255377, 0.0304603880671, 0
530, -0.11383008809186, -0.05014973790533, 0
531, -0.37828689694781, 0.21401659092625, 0
532, 0.052935595054814, 0.4216019385202, 0
533, 0.46442523529406, 0.21341161627931, 0
534, -0.33575113837997, -0.1313718382956, 0
535, 0.51837603263502, -0.086204946225079, 0
536, 0.43065446913074, 0.0061419509437025, 0
537, 0.031674186275943, -0.43855572215157, 0
538, 0.084948477729765, -0.064043165985521, 0
539, 0.23251497787904, -0.16715698053586, 0
540, -0.092019219873991, -0.063171584003507, 0
541, -0.24546345954792, 0.14435753578316, 0
542, -0.26321830444361, 0.1821009455888, 0
543, 0.25514089512724, 0.017072593142, 0
544, 0.21592376960248, -0.020890721107982, 0
545, 0.21063781763468, 0.024570913936529, 0
546, 0.51265209627532, 0.16938561518086, 0
547, 0.12933451829425, 0.064214792393963, 0
548, 0.11246353835758, 0.063772018826758, 0
549, 0.24144066537027, 0.11992714392732, 0
550, 0.21747755533373, -0.12751788231981, 0
551, 0.19472394082725, -0.077573953154887, 0
552, 0.29752959624664, 0.099608892717871, 0
553, -0.13533277942337, 0.078427410812736, 0
554, 0.37986736639172, -0.1379438497732, 0
555, 0.12639707717524, -0.078837920601775, 0
556, 0.18107678134972, 0.076755237175627, 0
557, 0.46922342585138, 0.019239141963926, 0
558, -0.010410171631424, 0.080550451287439, 0
559, -0.20332966357486, -0.12743942232274, 0
560, -0.1717180258382, 0.080253462275219, 0
561, 0.082863351113279, 0.38801495510447, 0
562, -0.0074802807021016, -0.092120247473812, 0
563, -0.46946259862199, 0.058975924626103, 0
564, -0.15248239585517, -0.0058485423329742, 0
565, -0.26386700571735, -0.16611772430109, 0
566, 0.42551914350018, -0.13796980151542, 0
567, -0.23710346289413, 0.11352323170473, 0
568, -0.48196609702495, 0.022955344116982, 0
569, 0.4242799327268, 0.039148502592564, 0
570, 0.082684980000505, 0.062030095826359, 0
571, -0.42688875635124, -0.13861487502298, 0
572, -0.48123898034998, 0.12446794918579, 0
573, -0.068161453398448, -0.076279607974236, 0
574, -0.093033208568987, -0.13893472027959, 0
575, 0.47117223964694, -0.13491817323319, 0
576, 0.083230845026637, -0.13844820846121, 0
577, 0.22263245288775, 0.012390033598635, 0
578, -0.48708018224447, -0.017257071992888, 0
579, -0.10026482207891, -0.082536023047437, 0
580, 0.051889917749904, 0.35499779284016, 0
581, 0.1029475027816, 0.081510699362094, 0
582, 0.059553436566519, -0.43444301352792, 0
583, 0.045551138847973, 0.19812792936963, 0
584, 0.30090252587122, 0.12355754796653, 0
585, -0.29539214302192, -0.10431641418726, 0
586, -0.05578393655428, -0.40335864717074, 0
587, -0.32515941150792, -0.098755665399724, 0
588, 0.084133111738904, 0.3091787927822, 0
589, -0.027172614368829, -0.44880189376114, 0
590, -0.51504278489137, 0.21019410775078, 0
591, 0.083376854370042, 0.23033900634518, 0
592, 0.053334635754192, 0.27675973943343, 0
593, -0.51405424575141, -0.16952897435698, 0
594, 0.51320402255124, -0.17199154462659, 0
595, 0.51198034502642, 0.21143110956896, 0
596, -0.039820534028194, -0.06083899705536, 0
597, -0.47737020806479, 0.16998042423618, 0
598, -0.14027298959145, -0.080042887536654, 0
599, 0.1996647687765, 0.21324715388775, 0
600, -0.28645404424151, 0.093294183960667, 0
601, -0.028628600986632, 0.44457781506471, 0
602, -0.488283996296, -0.061478837578108, 0
603, 0.086535580100576, 0.46796169479885, 0
604, -0.086657147299292, -0.46519842790127, 0
605, 0.086961863476219, -0.46424599179118, 0
606, -0.086172264539968, 0.46529849559776, 0
607, -0.05384573717868, -0.36810171688897, 0
608, 0.043230735855777, 0.11693250164094, 0
609, 0.47711458176908, -0.055876359356486, 0
610, -0.20257907752577, 0.21937443289583, 0
611, -0.061304379620233, -0.19959178934875, 0
612, -0.017533734424141, -0.119566453636, 0
613, 0.052874600183922, 0.053815357673045, 0
614, 0.15249989629378, 0.066008395687113, 0
615, -0.055205901766787, 0.16795947143009, 0
616, -0.2244329549976, -0.18185085325041, 0
617, 0.49410266366342, 0.071921528406431, 0
618, -0.49610404757901, -0.086832751524258, 0
619, 0.087351284463793, -0.39334083395254, 0
620, -0.15581572359719, 0.059855396422437, 0
621, -0.32931264167594, 0.071362341969751, 0
622, -0.25722833012558, -0.013556692816356, 0
623, -0.084157330768444, -0.23037722829785, 0
624, 0.013654661812886, 0.094921236029596, 0
625, -0.001671168386876, 0.44518887983055, 0
626, -0.17734175409572, 0.0028076882778782, 0
627, 0.027767632131094, -0.012742625933294, 0
628, 0.217549454792, 0.040086525266616, 0
629, -0.04769637114592, -0.26714272151767, 0
630, 0.33590142585051, -0.1358838469485, 0
631, -0.030264494047435, -0.33819929940271, 0
632, 0.32455335328675, 0.062481527177262, 0
633, -0.053983305987683, 0.40589005524234, 0
634, 0.12001745949923, -0.059718553313347, 0
635, -0.352732561018, 0.18508799281348, 0
636, -0.12017121162529, -0.069222732173677, 0
637, -0.19328600580633, 0.030592024106092, 0
638, 0.17751579573386, -0.12781247111518, 0
639, 0.055587047073056, 0.45980331278028, 0
640, 0.063314726357289, -0.36673115083996, 0
641, -0.28271700929717, 0.12476715041984, 0
******* E L E M E N T S *************
*ELEMENT, type=T3D2, ELSET=Line1
1, 1, 21
2, 21, 22
3, 22, 23
4, 23, 24
5, 24, 25
6, 25, 26
7, 26, 27
8, 27, 2
*ELEMENT, type=T3D2, ELSET=Line2
9, 2, 28
10, 28, 29
11, 29, 30
12, 30, 31
13, 31, 32
14, 32, 33
15, 33, 34
16, 34, 35
17, 35, 36
18, 36, 3
*ELEMENT, type=T3D2, ELSET=Line3
19, 3, 37
20, 37, 4
*ELEMENT, type=T3D2, ELSET=Line4
21, 4, 38
22, 38, 39
23, 39, 40
24, 40, 5
*ELEMENT, type=T3D2, ELSET=Line5
25, 5, 41
26, 41, 42
27, 42, 43
28, 43, 44
29, 44, 45
30, 45, 46
31, 46, 47
32, 47, 6
*ELEMENT, type=T3D2, ELSET=Line6
33, 6, 48
34, 48, 49
35, 49, 50
36, 50, 51
37, 51, 52
38, 52, 53
39, 53, 54
40, 54, 55
41, 55, 56
42, 56, 7
*ELEMENT, type=T3D2, ELSET=Line7
43, 7, 57
44, 57, 58
45, 58, 59
46, 59, 60
47, 60, 61
48, 61, 62
49, 62, 63
50, 63, 8
*ELEMENT, type=T3D2, ELSET=Line8
51, 8, 64
52, 64, 65
53, 65, 66
54, 66, 9
*ELEMENT, type=T3D2, ELSET=Line9
55, 9, 67
56, 67, 10
*ELEMENT, type=T3D2, ELSET=Line10
57, 10, 68
58, 68, 69
59, 69, 70
60, 70, 71
61, 71, 72
62, 72, 73
63, 73, 74
64, 74, 75
65, 75, 76
66, 76, 11
*ELEMENT, type=T3D2, ELSET=Line11
67, 11, 77
68, 77, 78
69, 78, 79
70, 79, 80
71, 80, 81
72, 81, 82
73, 82, 83
74, 83, 12
*ELEMENT, type=T3D2, ELSET=Line12
75, 12, 84
76, 84, 85
77, 85, 86
78, 86, 87
79, 87, 88
80, 88, 89
81, 89, 90
82, 90, 91
83, 91, 92
84, 92, 13
*ELEMENT, type=T3D2, ELSET=Line13
85, 13, 93
86, 93, 14
*ELEMENT, type=T3D2, ELSET=Line14
87, 14, 94
88, 94, 95
89, 95, 96
90, 96, 15
*ELEMENT, type=T3D2, ELSET=Line15
91, 15, 97
92, 97, 98
93, 98, 99
94, 99, 100
95, 100, 101
96, 101, 102
97, 102, 103
98, 103, 16
*ELEMENT, type=T3D2, ELSET=Line16
99, 16, 104
100, 104, 105
101, 105, 106
102, 106, 107
103, 107, 108
104, 108, 109
105, 109, 110
106, 110, 111
107, 111, 112
108, 112, 17
*ELEMENT, type=T3D2, ELSET=Line17
109, 17, 113
110, 113, 114
111, 114, 115
112, 115, 116
113, 116, 117
114, 117, 118
115, 118, 119
116, 119, 18
*ELEMENT, type=T3D2, ELSET=Line18
117, 18, 120
118, 120, 121
119, 121, 122
120, 122, 19
*ELEMENT, type=T3D2, ELSET=Line19
121, 19, 123
122, 123, 20
*ELEMENT, type=T3D2, ELSET=Line20
123, 20, 124
124, 124, 125
125, 125, 126
126, 126, 127
127, 127, 128
128, 128, 129
129, 129, 130
130, 130, 131
131, 131, 132
132, 132, 1
*ELEMENT, type=CPS4, ELSET=Surface1
133, 166, 409, 32, 33
134, 31, 32, 409, 499
135, 284, 260, 291, 432
136, 66, 9, 155, 154
137, 94, 153, 174, 14
138, 415, 416, 213, 228
139, 409, 166, 458, 361
140, 92, 13, 169, 142
141, 448, 353, 498, 209
142, 532, 405, 561, 341
143, 462, 340, 538, 463
144, 498, 368, 533, 209
145, 385, 317, 370, 456
146, 370, 539, 42, 456
147, 633, 247, 438, 437
148, 562, 389, 346, 612
149, 377, 376, 607, 586
150, 469, 216, 621, 382
151, 412, 410, 62, 304
152, 338, 577, 465, 543
153, 608, 354, 507, 300
154, 551, 318, 550, 488
155, 184, 468, 278, 182
156, 387, 187, 637, 386
157, 176, 387, 560, 174
158, 254, 470, 355, 268
159, 87, 438, 247, 86
160, 13, 434, 191, 169
161, 371, 637, 187, 457
162, 456, 135, 630, 385
163, 10, 68, 508, 148
164, 493, 420, 589, 157
165, 606, 428, 446, 324
166, 140, 481, 353, 448
167, 604, 323, 452, 429
168, 391, 460, 615, 313
169, 472, 395, 397, 439
170, 379, 208, 524, 351
171, 431, 523, 549, 327
172, 412, 411, 140, 410
173, 319, 458, 166, 519
174, 460, 391, 472, 165
175, 573, 348, 430, 540
176, 193, 191, 434, 433
177, 220, 541, 388, 641
178, 619, 159, 640, 418
179, 320, 357, 361, 458
180, 395, 472, 391, 392
181, 596, 389, 562, 329
182, 214, 521, 66, 154
183, 623, 364, 611, 207
184, 388, 542, 422, 384
185, 431, 327, 552, 584
186, 254, 612, 346, 470
187, 411, 412, 523, 431
188, 561, 405, 580, 160
189, 609, 483, 311, 349
190, 424, 135, 43, 44
191, 337, 413, 136, 534
192, 556, 297, 614, 407
193, 422, 99, 100, 139
194, 201, 421, 437, 438
195, 383, 380, 378, 382
196, 19, 455, 219, 162
197, 217, 447, 196, 194
198, 607, 376, 631, 443
199, 216, 469, 333, 495
200, 603, 341, 75, 76
201, 605, 28, 29, 342
202, 423, 304, 599, 487
203, 116, 117, 435, 136
204, 388, 541, 445, 542
205, 375, 372, 373, 374
206, 402, 401, 399, 400
207, 140, 61, 62, 410
208, 604, 429, 131, 132
209, 606, 84, 85, 428
210, 591, 419, 583, 206
211, 429, 248, 130, 131
212, 428, 85, 86, 247
213, 149, 188, 579, 20
214, 236, 424, 44, 45
215, 477, 345, 331, 285
216, 588, 406, 592, 203
217, 479, 430, 348, 295
218, 433, 218, 217, 193
219, 588, 160, 580, 406
220, 440, 133, 107, 108
221, 53, 134, 441, 52
222, 61, 140, 448, 60
223, 344, 616, 118, 119
224, 191, 171, 170, 169
225, 517, 445, 541, 215
226, 582, 342, 619, 418
227, 122, 19, 162, 161
228, 557, 367, 569, 536
229, 305, 98, 99, 422
230, 479, 295, 256, 447
231, 187, 178, 180, 457
232, 184, 258, 466, 468
233, 135, 456, 42, 43
234, 233, 219, 455, 322
235, 402, 403, 404, 401
236, 228, 529, 613, 415
237, 248, 442, 129, 130
238, 382, 378, 335, 469
239, 218, 433, 425, 306
240, 421, 201, 461, 439
241, 377, 374, 373, 376
242, 400, 399, 397, 398
243, 165, 90, 91, 460
244, 276, 224, 464, 330
245, 189, 440, 108, 109
246, 387, 176, 178, 187
247, 454, 208, 101, 102
248, 339, 210, 167, 168
249, 347, 513, 250, 283
250, 109, 110, 453, 189
251, 190, 51, 52, 441
252, 186, 152, 150, 185
253, 295, 279, 271, 256
254, 634, 463, 538, 292
255, 432, 291, 353, 481
256, 373, 372, 362, 363
257, 579, 540, 530, 636
258, 421, 399, 401, 437
259, 136, 413, 115, 116
260, 142, 494, 91, 92
261, 306, 425, 620, 352
262, 447, 256, 251, 196
263, 100, 531, 635, 139
264, 442, 202, 128, 129
265, 438, 87, 88, 201
266, 150, 152, 426, 146
267, 508, 206, 583, 507
268, 422, 139, 635, 384
269, 133, 449, 106, 107
270, 439, 397, 399, 421
271, 398, 397, 395, 396
272, 335, 378, 379, 351
273, 417, 618, 453, 308
274, 461, 89, 90, 165
275, 363, 362, 361, 359
276, 308, 453, 110, 111
277, 600, 641, 383, 459
278, 201, 88, 89, 461
279, 209, 59, 60, 448
280, 193, 192, 171, 191
281, 609, 190, 441, 483
282, 445, 444, 610, 305
283, 358, 359, 361, 357
284, 217, 218, 264, 252
285, 303, 252, 264, 296
286, 465, 205, 222, 237
287, 457, 482, 294, 371
288, 496, 520, 466, 298
289, 252, 479, 447, 217
290, 471, 629, 474, 202
291, 383, 382, 621, 459
292, 217, 194, 192, 193
293, 396, 395, 392, 394
294, 165, 472, 439, 461
295, 276, 427, 608, 300
296, 127, 128, 202, 474
297, 369, 233, 322, 476
298, 358, 357, 320, 356
299, 256, 271, 272, 251
300, 214, 423, 487, 521
301, 430, 479, 252, 303
302, 153, 94, 95, 517
303, 558, 416, 624, 330
304, 475, 228, 213, 197
305, 115, 413, 571, 234
306, 237, 238, 241, 478
307, 332, 281, 495, 333
308, 218, 306, 307, 264
309, 266, 365, 302, 366
310, 263, 231, 477, 285
311, 251, 197, 195, 196
312, 253, 489, 167, 210
313, 347, 283, 336, 337
314, 197, 251, 272, 475
315, 469, 335, 334, 333
316, 591, 203, 592, 419
317, 62, 63, 599, 304
318, 202, 442, 607, 443
319, 362, 372, 640, 499
320, 311, 483, 557, 536
321, 185, 230, 231, 186
322, 268, 355, 356, 320
323, 205, 465, 544, 164
324, 575, 309, 535, 451
325, 332, 321, 280, 281
326, 464, 224, 223, 170
327, 263, 285, 331, 286
328, 189, 453, 618, 602
329, 394, 392, 314, 393
330, 365, 266, 546, 368
331, 381, 519, 34, 35
332, 196, 195, 192, 194
333, 369, 294, 229, 233
334, 345, 477, 259, 501
335, 235, 211, 216, 495
336, 59, 209, 533, 58
337, 115, 234, 485, 114
338, 98, 305, 610, 97
339, 233, 229, 173, 219
340, 73, 74, 561, 160
341, 45, 46, 486, 236
342, 519, 381, 267, 319
343, 260, 284, 632, 244
344, 633, 437, 401, 404
345, 463, 262, 263, 462
346, 470, 505, 611, 355
347, 51, 190, 535, 50
348, 302, 502, 569, 367
349, 238, 240, 242, 241
350, 286, 287, 462, 263
351, 286, 529, 350, 287
352, 294, 369, 626, 371
353, 346, 389, 573, 188
354, 497, 277, 276, 300
355, 374, 420, 537, 375
356, 259, 477, 231, 230
357, 170, 171, 509, 464
358, 514, 339, 340, 510
359, 306, 352, 386, 307
360, 261, 302, 365, 301
361, 250, 282, 336, 283
362, 485, 234, 571, 417
363, 408, 628, 273, 199
364, 620, 425, 553, 145
365, 197, 213, 509, 195
366, 235, 280, 282, 250
367, 180, 278, 482, 457
368, 31, 159, 619, 30
369, 31, 499, 640, 159
370, 458, 319, 268, 320
371, 140, 411, 432, 481
372, 280, 235, 495, 281
373, 68, 69, 206, 508
374, 258, 184, 211, 212
375, 632, 284, 552, 414
376, 211, 184, 182, 183
377, 278, 180, 181, 182
378, 392, 391, 313, 314
379, 211, 235, 250, 212
380, 361, 362, 499, 409
381, 230, 232, 290, 259
382, 246, 245, 244, 242
383, 311, 310, 275, 349
384, 426, 143, 144, 146
385, 106, 265, 504, 105
386, 359, 471, 631, 363
387, 259, 290, 408, 407
388, 339, 168, 538, 340
389, 336, 282, 480, 343
390, 321, 480, 282, 280
391, 260, 261, 301, 291
392, 244, 245, 261, 260
393, 153, 175, 176, 174
394, 497, 314, 313, 277
395, 418, 375, 537, 582
396, 237, 222, 239, 238
397, 169, 170, 223, 142
398, 146, 147, 151, 150
399, 505, 574, 124, 125
400, 240, 484, 246, 242
401, 37, 4, 144, 143
402, 238, 239, 243, 240
403, 54, 55, 546, 266
404, 202, 443, 631, 471
405, 263, 262, 186, 231
406, 117, 118, 565, 435
407, 298, 466, 467, 299
408, 381, 35, 36, 576
409, 511, 390, 616, 344
410, 310, 243, 274, 275
411, 350, 529, 228, 475
412, 3, 168, 167, 141
413, 199, 556, 407, 408
414, 570, 288, 613, 500
415, 478, 414, 326, 328
416, 224, 276, 277, 225
417, 38, 638, 318, 4
418, 148, 508, 507, 354
419, 195, 509, 171, 192
420, 304, 423, 523, 412
421, 152, 186, 262, 490
422, 368, 546, 595, 533
423, 424, 554, 630, 135
424, 71, 72, 588, 203
425, 434, 13, 93, 553
426, 328, 326, 200, 273
427, 103, 16, 104, 590
428, 219, 173, 172, 162
429, 310, 484, 240, 243
430, 69, 70, 591, 206
431, 125, 126, 623, 207
432, 270, 198, 496, 298
433, 230, 185, 512, 232
434, 289, 415, 613, 288
435, 91, 494, 615, 460
436, 180, 178, 177, 179
437, 436, 435, 565, 312
438, 402, 400, 580, 405
439, 148, 255, 581, 10
440, 210, 339, 514, 515
441, 368, 498, 301, 365
442, 273, 200, 156, 199
443, 272, 271, 329, 514
444, 383, 384, 635, 380
445, 597, 524, 208, 454
446, 319, 267, 254, 268
447, 488, 257, 221, 204
448, 288, 255, 608, 289
449, 398, 396, 592, 406
450, 204, 163, 551, 488
451, 185, 150, 151, 512
452, 476, 322, 527, 450
453, 253, 254, 267, 489
454, 291, 301, 498, 353
455, 178, 176, 175, 177
456, 33, 34, 519, 166
457, 435, 436, 534, 136
458, 346, 188, 149, 293
459, 302, 261, 245, 502
460, 250, 513, 258, 212
461, 271, 279, 596, 329
462, 550, 539, 370, 317
463, 639, 227, 518, 473
464, 375, 418, 640, 372
465, 346, 293, 505, 470
466, 466, 258, 513, 467
467, 360, 349, 275, 503
468, 113, 593, 112, 17
469, 47, 6, 48, 594
470, 356, 364, 629, 358
471, 222, 205, 204, 221
472, 205, 164, 163, 204
473, 274, 325, 503, 275
474, 296, 450, 530, 303
475, 374, 377, 589, 420
476, 208, 379, 635, 531
477, 266, 522, 53, 54
478, 487, 65, 66, 521
479, 257, 488, 550, 317
480, 23, 24, 493, 157
481, 455, 19, 123, 598
482, 79, 80, 158, 518
483, 623, 474, 629, 364
484, 414, 478, 241, 632
485, 385, 316, 257, 317
486, 57, 595, 56, 7
487, 243, 239, 516, 274
488, 9, 297, 556, 155
489, 9, 67, 137, 528
490, 554, 566, 360, 503
491, 221, 516, 239, 222
492, 340, 462, 287, 510
493, 394, 393, 583, 419
494, 294, 520, 496, 229
495, 80, 81, 525, 158
496, 121, 122, 161, 511
497, 433, 434, 553, 425
498, 450, 296, 564, 476
499, 257, 316, 516, 221
500, 142, 223, 615, 494
501, 290, 232, 512, 315
502, 465, 237, 478, 543
503, 621, 181, 600, 459
504, 445, 517, 95, 444
505, 484, 310, 311, 536
506, 182, 181, 621, 183
507, 53, 522, 617, 134
508, 287, 350, 627, 510
509, 24, 25, 226, 493
510, 384, 383, 641, 388
511, 78, 79, 518, 227
512, 587, 347, 337, 534
513, 229, 496, 198, 173
514, 208, 531, 100, 101
515, 25, 26, 491, 226
516, 422, 542, 445, 305
517, 309, 49, 50, 535
518, 416, 558, 509, 213
519, 478, 328, 338, 543
520, 608, 427, 624, 289
521, 198, 270, 312, 269
522, 81, 82, 324, 525
523, 343, 417, 571, 336
524, 23, 526, 323, 22
525, 155, 156, 214, 154
526, 173, 198, 269, 172
527, 605, 342, 582, 491
528, 23, 157, 589, 526
529, 517, 215, 175, 153
530, 483, 441, 134, 557
531, 146, 144, 551, 147
532, 156, 155, 556, 199
533, 554, 424, 236, 566
534, 603, 492, 639, 341
535, 405, 532, 473, 402
536, 440, 189, 602, 578
537, 151, 544, 315, 512
538, 143, 426, 634, 555
539, 63, 8, 64, 599
540, 106, 449, 572, 265
541, 3, 37, 143, 555
542, 547, 548, 331, 345
543, 97, 610, 96, 15
544, 125, 207, 611, 505
545, 601, 446, 633, 404
546, 476, 564, 626, 369
547, 446, 428, 247, 633
548, 586, 607, 442, 248
549, 589, 377, 586, 452
550, 14, 145, 553, 93
551, 248, 429, 452, 586
552, 114, 485, 593, 113
553, 46, 47, 594, 486
554, 328, 273, 628, 338
555, 120, 121, 511, 344
556, 466, 520, 622, 468
557, 350, 475, 272, 627
558, 330, 464, 509, 558
559, 3, 292, 538, 168
560, 224, 225, 615, 223
561, 180, 179, 600, 181
562, 179, 177, 567, 220
563, 341, 561, 74, 75
564, 133, 440, 578, 568
565, 163, 164, 544, 151
566, 411, 431, 584, 432
567, 300, 507, 583, 497
568, 174, 560, 145, 14
569, 316, 325, 274, 516
570, 326, 327, 549, 200
571, 118, 616, 390, 565
572, 417, 308, 593, 485
573, 210, 515, 562, 253
574, 420, 493, 226, 537
575, 575, 486, 594, 309
576, 423, 214, 549, 523
577, 566, 236, 486, 575
578, 102, 103, 590, 454
579, 333, 334, 563, 332
580, 386, 352, 620, 387
581, 506, 41, 42, 539
582, 323, 526, 589, 452
583, 286, 331, 570, 500
584, 406, 580, 400, 398
585, 436, 312, 270, 585
586, 371, 626, 386, 637
587, 151, 147, 551, 163
588, 414, 552, 327, 326
589, 303, 530, 540, 430
590, 563, 568, 321, 332
591, 449, 133, 568, 563
592, 636, 138, 20, 579
593, 413, 337, 336, 571
594, 484, 536, 569, 246
595, 513, 347, 587, 467
596, 296, 264, 307, 564
597, 160, 588, 72, 73
598, 276, 330, 624, 427
599, 266, 366, 617, 522
600, 203, 591, 70, 71
601, 566, 575, 451, 360
602, 335, 351, 572, 334
603, 4, 318, 551, 144
604, 550, 249, 506, 539
605, 378, 380, 635, 379
606, 40, 506, 249, 39
607, 389, 596, 348, 573
608, 419, 592, 396, 394
609, 342, 29, 30, 619
610, 245, 246, 569, 502
611, 302, 367, 617, 366
612, 324, 446, 601, 525
613, 78, 492, 603, 77
614, 26, 27, 605, 491
615, 295, 348, 596, 279
616, 259, 407, 614, 501
617, 514, 329, 562, 515
618, 367, 557, 134, 617
619, 376, 373, 363, 631
620, 20, 138, 598, 123
621, 105, 504, 590, 104
622, 111, 112, 593, 308
623, 22, 323, 604, 21
624, 82, 83, 606, 324
625, 402, 473, 625, 403
626, 49, 309, 594, 48
627, 474, 623, 126, 127
628, 334, 572, 449, 563
629, 568, 578, 480, 321
630, 269, 312, 565, 390
631, 504, 265, 572, 597
632, 294, 482, 622, 520
633, 390, 559, 172, 269
634, 3, 555, 634, 292
635, 67, 10, 581, 137
636, 360, 451, 609, 349
637, 242, 244, 632, 241
638, 267, 381, 576, 489
639, 364, 356, 355, 611
640, 167, 489, 576, 141
641, 415, 289, 624, 416
642, 211, 183, 621, 216
643, 28, 605, 27, 2
644, 84, 606, 83, 12
645, 132, 1, 21, 604
646, 76, 11, 77, 603
647, 298, 299, 585, 270
648, 597, 454, 590, 504
649, 562, 612, 254, 253
650, 527, 636, 530, 450
651, 162, 172, 559, 161
652, 359, 358, 629, 471
653, 505, 293, 149, 574
654, 602, 618, 417, 343
655, 220, 567, 215, 541
656, 177, 175, 215, 567
657, 277, 313, 615, 225
658, 390, 511, 161, 559
659, 200, 549, 214, 156
660, 148, 354, 608, 255
661, 262, 463, 634, 490
662, 65, 487, 599, 64
663, 95, 96, 610, 444
664, 314, 497, 583, 393
665, 465, 577, 315, 544
666, 322, 455, 598, 527
667, 9, 528, 614, 297
668, 137, 547, 614, 528
669, 468, 622, 482, 278
670, 20, 124, 574, 149
671, 3, 141, 576, 36
672, 343, 480, 578, 602
673, 514, 510, 627, 272
674, 290, 315, 577, 545
675, 290, 545, 628, 408
676, 573, 540, 579, 188
677, 491, 582, 537, 226
678, 564, 307, 386, 626
679, 58, 533, 595, 57
680, 286, 500, 613, 529
681, 572, 351, 524, 597
682, 152, 490, 634, 426
683, 331, 548, 581, 570
684, 179, 220, 641, 600
685, 598, 138, 636, 527
686, 190, 609, 451, 535
687, 467, 587, 585, 299
688, 39, 249, 638, 38
689, 547, 137, 581, 548
690, 55, 56, 595, 546
691, 432, 584, 552, 284
692, 473, 532, 341, 639
693, 577, 338, 628, 545
694, 345, 501, 614, 547
695, 288, 570, 581, 255
696, 78, 227, 639, 492
697, 503, 325, 630, 554
698, 387, 620, 145, 560
699, 534, 436, 585, 587
700, 158, 625, 473, 518
701, 318, 638, 249, 550
702, 316, 385, 630, 325
703, 525, 601, 625, 158
704, 404, 403, 625, 601
705, 40, 5, 41, 506
706, 119, 18, 120, 344
*ELSET,ELSET=contact_bottom
1, 2, 3, 4, 5, 6, 7, 8, 
*ELSET,ELSET=contact_top
67, 68, 69, 70, 71, 72, 73, 74, 
*ELSET,ELSET=walls
9, 10, 11, 12, 13, 14, 15, 16, 17, 18, 
19, 20, 21, 22, 23, 24, 25, 26, 27, 28, 
29, 30, 31, 32, 33, 34, 35, 36, 37, 38, 
39, 40, 41, 42, 43, 44, 45, 46, 47, 48, 
49, 50, 51, 52, 53, 54, 55, 56, 57, 58, 
59, 60, 61, 62, 63, 64, 65, 66, 75, 76, 
77, 78, 79, 80, 81, 82, 83, 84, 85, 86, 
87, 88, 89, 90, 91, 92, 93, 94, 95, 96, 
97, 98, 99, 100, 101, 102, 103, 104, 105, 106, 
107, 108, 109, 110, 111, 112, 113, 114, 115, 116, 
117, 118, 119, 120, 121, 122, 123, 124, 125, 126, 
127, 128, 129, 130, 131, 132, 
*ELSET,ELSET=domain
133, 134, 135, 136, 137, 138, 139, 140, 141, 142, 
143, 144, 145, 146, 147, 148, 149, 150, 151, 152, 
153, 154, 155, 156, 157, 158, 159, 160, 161, 162, 
163, 164, 165, 166, 167, 168, 169, 170, 171, 172, 
173, 174, 175, 176, 177, 178, 179, 180, 181, 182, 
183, 184, 185, 186, 187, 188, 189, 190, 191, 192, 
193, 194, 195, 196, 197, 198, 199, 200, 201, 202, 
203, 204, 205, 206, 207, 208, 209, 210, 211, 212, 
213, 214, 215, 216, 217, 218, 219, 220, 221, 222, 
223, 224, 225, 226, 227, 228, 229, 230, 231, 232, 
233, 234, 235, 236, 237, 238, 239, 240, 241, 242, 
243, 244, 245, 246, 247, 248, 249, 250, 251, 252, 
253, 254, 255, 256, 257, 258, 259, 260, 261, 262, 
263, 264, 265, 266, 267, 268, 269, 270, 271, 272, 
273, 274, 275, 276, 277, 278, 279, 280, 281, 282, 
283, 284, 285, 286, 287, 288, 289, 290, 291, 292, 
293, 294, 295, 296, 297, 298, 299, 300, 301, 302, 
303, 304, 305, 306, 307, 308, 309, 310, 311, 312, 
313, 314, 315, 316, 317, 318, 319, 320, 321, 322, 
323, 324, 325, 326, 327, 328, 329, 330, 331, 332, 
333, 334, 335, 336, 337, 338, 339, 340, 341, 342, 
343, 344, 345, 346, 347, 348, 349, 350, 351, 352, 
353, 354, 355, 356, 357, 358, 359, 360, 361, 362, 
363, 364, 365, 366, 367, 368, 369, 370, 371, 372, 
373, 374, 375, 376, 377, 378, 379, 380, 381, 382, 
383, 384, 385, 386, 387, 388, 389, 390, 391, 392, 
393, 394, 395, 396, 397, 398, 399, 400, 401, 402, 
403, 404, 405, 406, 407, 408, 409, 410, 411, 412, 
413, 414, 415, 416, 417, 418, 419, 420, 421, 422, 
423, 424, 425, 426, 427, 428, 429, 430, 431, 432, 
433, 434, 435, 436, 437, 438, 439, 440, 441, 442, 
443, 444, 445, 446, 447, 448, 449, 450, 451, 452, 
453, 454, 455, 456, 457, 458, 459, 460, 461, 462, 
463, 464, 465, 466, 467, 468, 469, 470, 471, 472, 
473, 474, 475, 476, 477, 478, 479, 480, 481, 482, 
483, 484, 485, 486, 487, 488, 489, 490, 491, 492, 
493, 494, 495, 496, 497, 498, 499, 500, 501, 502, 
503, 504, 505, 506, 507, 508, 509, 510, 511, 512, 
513, 514, 515, 516, 517, 518, 519, 520, 521, 522, 
523, 524, 525, 526, 527, 528, 529, 530, 531, 532, 
533, 534, 535, 536, 537, 538, 539, 540, 541, 542, 
543, 544, 545, 546, 547, 548, 549, 550, 551, 552, 
553, 554, 555, 556, 557, 558, 559, 560, 561, 562, 
563, 564, 565, 566, 567, 568, 569, 570, 571, 572, 
573, 574, 575, 576, 577, 578, 579, 580, 581, 582, 
583, 584, 585, 586, 587, 588, 589, 590, 591, 592, 
593, 594, 595, 596, 597, 598, 599, 600, 601, 602, 
603, 604, 605, 606, 607, 608, 609, 610, 611, 612, 
613, 614, 615, 616, 617, 618, 619, 620, 621, 622, 
623, 624, 625, 626, 627, 628, 629, 630, 631, 632, 
633, 634, 635, 636, 637, 638, 639, 640, 641, 642, 
643, 644, 645, 646, 647, 648, 649, 650, 651, 652, 
653, 654, 655, 656, 657, 658, 659, 660, 661, 662, 
663, 664, 665, 666, 667, 668, 669, 670, 671, 672, 
673, 674, 675, 676, 677, 678, 679, 680, 681, 682, 
683, 684, 685, 686, 687, 688, 689, 690, 691, 692, 
693, 694, 695, 696, 697, 698, 699, 700, 701, 702, 
703, 704, 705, 706, 
*NSET,NSET=contact_bottom
1, 2, 21, 22, 23, 24, 25, 26, 27,
*NSET,NSET=contact_top
11, 12, 77, 78, 79, 80, 81, 82, 83,
*NSET,NSET=walls
1, 2, 3, 4, 5, 6, 7, 8, 9, 10, 11, 12, 13, 14, 15, 16,
17, 18, 19, 20, 28, 29, 30, 31, 32, 33, 34, 35, 36, 37, 38, 39,
40, 41, 42, 43, 44, 45, 46, 47, 48, 49, 50, 51, 52, 53, 54, 55,
56, 57, 58, 59, 60, 61, 62, 63, 64, 65, 66, 67, 68, 69, 70, 71,
72, 73, 74, 75, 76, 84, 85, 86, 87, 88, 89, 90, 91, 92, 93, 94,
95, 96, 97, 98, 99, 100, 101, 102, 103, 104, 105, 106, 107, 108, 109, 110,
111, 112, 113, 114, 115, 116, 117, 118, 119, 120, 121, 122, 123, 124, 125, 126,
127, 128, 129, 130, 131, 132,
