*Heading
 /Users/jfarrell/Desktop/FermiHarmonics/projects/nonlinearities/mesh/tesla_valve.inp
*NODE
1, -0.2551, -0.4249, 0
2, 0.1097, -0.06, 0
3, 0.9, -0.06, 0
4, 0.9, 0.06, 0
5, 0.78, 0.06, 0
6, 0.5752, 0.4437, 0
7, 0.06, 0.06, 0
8, -0.34, -0.34, 0
9, 0.1825, 0.06, 0
10, 0.6375, 0.06, 0
11, 0.577, 0.3271, 0
12, -0.23483333333333, -0.40462777777778, 0
13, -0.21456666666667, -0.38435555555556, 0
14, -0.1943, -0.36408333333333, 0
15, -0.17403333333333, -0.34381111111111, 0
16, -0.15376666666667, -0.32353888888889, 0
17, -0.1335, -0.30326666666667, 0
18, -0.11323333333333, -0.28299444444444, 0
19, -0.092966666666667, -0.26272222222222, 0
20, -0.0727, -0.24245, 0
21, -0.052433333333333, -0.22217777777778, 0
22, -0.032166666666667, -0.20190555555556, 0
23, -0.0119, -0.18163333333333, 0
24, 0.0083666666666667, -0.16136111111111, 0
25, 0.028633333333333, -0.14108888888889, 0
26, 0.0489, -0.12081666666667, 0
27, 0.069166666666667, -0.10054444444444, 0
28, 0.089433333333333, -0.080272222222222, 0
29, 0.137925, -0.06, 0
30, 0.16615, -0.06, 0
31, 0.194375, -0.06, 0
32, 0.2226, -0.06, 0
33, 0.250825, -0.06, 0
34, 0.27905, -0.06, 0
35, 0.307275, -0.06, 0
36, 0.3355, -0.06, 0
37, 0.363725, -0.06, 0
38, 0.39195, -0.06, 0
39, 0.420175, -0.06, 0
40, 0.4484, -0.06, 0
41, 0.476625, -0.06, 0
42, 0.50485, -0.06, 0
43, 0.533075, -0.06, 0
44, 0.5613, -0.06, 0
45, 0.589525, -0.06, 0
46, 0.61775, -0.06, 0
47, 0.645975, -0.06, 0
48, 0.6742, -0.06, 0
49, 0.702425, -0.06, 0
50, 0.73065, -0.06, 0
51, 0.758875, -0.06, 0
52, 0.7871, -0.06, 0
53, 0.815325, -0.06, 0
54, 0.84355, -0.06, 0
55, 0.871775, -0.06, 0
56, 0.9, -0.03, 0
57, 0.9, 2.0122792321331e-16, 0
58, 0.9, 0.03, 0
59, 0.87, 0.06, 0
60, 0.84, 0.06, 0
61, 0.81, 0.06, 0
62, 0.79240065928232, 0.084398736341677, 0
63, 0.80319544004477, 0.10954842742047, 0
64, 0.8121972427586, 0.13539315080074, 0
65, 0.81919006230678, 0.1618509121592, 0
66, 0.82392857161944, 0.18880224548489, 0
67, 0.82614209089808, 0.2160753268124, 0
68, 0.82554672109471, 0.24342924116201, 0
69, 0.82186990669568, 0.27053874858778, 0
70, 0.81489039189455, 0.29698834498482, 0
71, 0.80449038349634, 0.32228670873951, 0
72, 0.79070568059367, 0.34591030498368, 0
73, 0.77375035036434, 0.36737208958812, 0
74, 0.75399765054195, 0.38629286345582, 0
75, 0.73192111275919, 0.40244581666921, 0
76, 0.70802153200225, 0.41575937440946, 0
77, 0.68276760826567, 0.426286822901, 0
78, 0.65656296371359, 0.43416298581868, 0
79, 0.62973670754866, 0.43956463023055, 0
80, 0.60254854993669, 0.44268175669488, 0
81, 0.54673337059504, 0.44271056036719, 0
82, 0.51839692959658, 0.4398081497855, 0
83, 0.49029580047514, 0.43514526874401, 0
84, 0.46251330549625, 0.42885414108286, 0
85, 0.43511728326148, 0.42104864532146, 0
86, 0.40816479025614, 0.41182647317856, 0
87, 0.38170566252494, 0.40127122902645, 0
88, 0.35578521843781, 0.38945432831167, 0
89, 0.33044639096285, 0.37643666637625, 0
90, 0.30573146291175, 0.36227005932951, 0
91, 0.28168355216135, 0.34699848563673, 0
92, 0.25834795564688, 0.33065916426409, 0
93, 0.23577344162351, 0.31328351048634, 0
94, 0.21401356959311, 0.29489801651417, 0
95, 0.19312810128282, 0.27552510182706, 0
96, 0.17318458431508, 0.25518400348329, 0
97, 0.15426016651567, 0.23389177144504, 0
98, 0.13644373130139, 0.21166448651875, 0
99, 0.11983841665301, 0.18851883122273, 0
100, 0.10456459863137, 0.16447423423139, 0
101, 0.090763363001925, 0.13955586864035, 0
102, 0.078600431854569, 0.11379894589848, 0
103, 0.068270304061951, 0.087254875126259, 0
104, 0.04, 0.04, 0
105, 0.02, 0.02, 0
106, -7.632783294298e-17, -7.632783294298e-17, 0
107, -0.02, -0.02, 0
108, -0.04, -0.04, 0
109, -0.06, -0.06, 0
110, -0.08, -0.08, 0
111, -0.1, -0.1, 0
112, -0.12, -0.12, 0
113, -0.14, -0.14, 0
114, -0.16, -0.16, 0
115, -0.18, -0.18, 0
116, -0.2, -0.2, 0
117, -0.22, -0.22, 0
118, -0.24, -0.24, 0
119, -0.26, -0.26, 0
120, -0.28, -0.28, 0
121, -0.3, -0.3, 0
122, -0.32, -0.32, 0
123, -0.318775, -0.361225, 0
124, -0.29755, -0.38245, 0
125, -0.276325, -0.403675, 0
126, 0.2109375, 0.06, 0
127, 0.239375, 0.06, 0
128, 0.2678125, 0.06, 0
129, 0.29625, 0.06, 0
130, 0.3246875, 0.06, 0
131, 0.353125, 0.06, 0
132, 0.3815625, 0.06, 0
133, 0.41, 0.06, 0
134, 0.4384375, 0.06, 0
135, 0.466875, 0.06, 0
136, 0.4953125, 0.06, 0
137, 0.52375, 0.06, 0
138, 0.5521875, 0.06, 0
139, 0.580625, 0.06, 0
140, 0.6090625, 0.06, 0
141, 0.65390634154307, 0.080732403681534, 0
142, 0.6689078056894, 0.10250160003619, 0
143, 0.68223423442053, 0.12533264141631, 0
144, 0.69351226067576, 0.14923880991658, 0
145, 0.70221638687691, 0.17419235735636, 0
146, 0.70760272943272, 0.20005690700063, 0
147, 0.70865131147699, 0.22644047424906, 0
148, 0.70413963351465, 0.25243294487089, 0
149, 0.69312854067103, 0.27638037822176, 0
150, 0.67585525968268, 0.29628544861477, 0
151, 0.65393097503873, 0.31094906255188, 0
152, 0.62930067960351, 0.32045355887816, 0
153, 0.60338186808029, 0.32556048089449, 0
154, 0.54934000969485, 0.3255813058809, 0
155, 0.52194048391624, 0.32147607763397, 0
156, 0.49495178091484, 0.31520564094766, 0
157, 0.468462115735, 0.30707658262986, 0
158, 0.44252884703327, 0.29731451778602, 0
159, 0.41719487306084, 0.28608716856696, 0
160, 0.39249778088657, 0.27351984997074, 0
161, 0.36847548763767, 0.25970589029112, 0
162, 0.3451702198974, 0.24471367781056, 0
163, 0.32263189713303, 0.22859144675337, 0
164, 0.30092160155334, 0.2113705191472, 0
165, 0.28011570975515, 0.1930674868127, 0
166, 0.26031132442608, 0.17368570300629, 0
167, 0.24163386992439, 0.15321644816403, 0
168, 0.22424817397657, 0.13164030187991, 0
169, 0.20837515743539, 0.10892974778526, 0
170, 0.19431754630565, 0.085055230815821, 0
171, 0.70450623079202, 0.30459077640599, 0
172, 0.72223122782956, 0.25792393039552, 0
173, 0.66434313549827, 0.058187508926942, 0
174, 0.63941920472013, 0.34342299882868, 0
175, 0.73739155474159, 0.18819513478178, 0
176, 0.58509026249554, 0.3596740700271, 0
177, 0.69726383149069, 0.099602133385708, 0
178, 0.074617392183584, 0.041387233859727, 0
179, 0.71879857346445, 0.14729301068535, 0
180, 0.30124155489018, 0.24825511299801, 0
181, 0.78574271672081, -0.0314378433802, 0
182, 0.18542882623671, 0.028679661072609, 0
183, 0.25944417367123, 0.21311522570183, 0
184, 0.30134294286395, 0.32672592050783, 0
185, 0.38999700327465, -0.030467212709464, 0
186, 0.50354480440543, -0.030735331686493, 0
187, 0.59055565531759, -0.0296930208843, 0
188, 0.2476122223811, -0.029771295129979, 0
189, 0.33312423507613, -0.030231358002146, 0
190, 0.4417436575052, 0.029397033425862, 0
191, 0.089255651607021, -0.040574693786871, 0
192, -0.25907388021356, -0.30064445867832, 0
193, -0.19902889057575, -0.24040362717502, 0
194, -0.15872130625808, -0.20018584942799, 0
195, -0.09819177806636, -0.13995276432004, 0
196, -0.058132677258099, -0.099811650474127, 0
197, -0.018245292587656, -0.060009953935202, 0
198, 0.20203218232403, 0.15058638639649, 0
199, 0.48841077830219, 0.33787608061753, 0
200, 0.17318286916916, 0.095649750994227, 0
201, 0.097663463216051, 0.092612677285017, 0
202, 0.67303474399416, -0.031988549341711, 0
203, 0.38240761030146, 0.29376786668525, 0
204, 0.3738571258912, 0.369265084518, 0
205, 0.44583558062923, 0.32144843917922, 0
206, 0.76756494774679, 0.33873413695441, 0
207, 0.77220696126938, 0.092732718049037, 0
208, 0.14210052028387, 0.16850622844638, 0
209, 0.72351714544193, 0.38583886690293, 0
210, 0.50793459704181, 0.40864228769066, 0
211, 0.19560793992997, 0.23397721396503, 0
212, 0.23679316632713, 0.27395512823452, 0
213, 0.7932507486713, 0.26760636500969, 0
214, 0.80149502046886, 0.16689502861078, 0
215, 0.62708356725145, 0.40287580057391, 0
216, 0.19163381969944, -0.03028971956968, 0
217, 0.81130485904403, 0.02874887180189, 0
218, 0.56218552616352, 0.41621639106789, 0
219, 0.021563095604923, -0.020716847563416, 0
220, 0.35599302192545, 0.029826402418672, 0
221, 0.27022889596942, 0.030250307925531, 0
222, 0.49859314107732, 0.029389845035222, 0
223, 0.55604853539836, 0.029965470625592, 0
224, -0.19599082576653, -0.32253436946611, 0
225, -0.13540446793168, -0.26184866914346, 0
226, -0.09470189919051, -0.22136363704095, 0
227, -0.033921417845632, -0.16069813406627, 0
228, 0.026395017108515, -0.10041592090393, 0
229, 0.4266561445172, 0.39045843005741, 0
230, -0.27764214009057, -0.36207974512663, 0
231, -0.27897350846585, -0.32080267723663, 0
232, -0.23620789505705, -0.36301773061097, 0
233, 0.8712768698609, -0.030208349017285, 0
234, 0.84078501347411, 0.029508759840668, 0
235, 0.17677037889294, 0.21271653101709, 0
236, 0.64692495155804, -0.032356445860741, 0
237, 0.72930644166612, -0.031041284483508, 0
238, 0.87080491721579, -0.0002779803783068, 0
239, 0.8703847943807, 0.029811436336524, 0
240, 0.25799205084934, 0.29205160609659, 0
241, 0.16492668046596, -0.030911551092706, 0
242, 0.04655039760415, -0.080554792910311, 0
243, -0.013808378898789, -0.1405239531412, 0
244, -0.074378517747606, -0.20117430675677, 0
245, -0.15564796398317, -0.28209857147232, 0
246, 0.58603620188631, 0.031225916130604, 0
247, 0.64285289945654, 0.043425744564223, 0
248, 0.29892360999082, 0.030043961370323, 0
249, 0.38462818519708, 0.02964862883119, 0
250, 0.44691157198653, -0.030728240495491, 0
251, 0.30463333565258, -0.030080669678634, 0
252, 0.56079046267909, -0.030225310105873, 0
253, -0.21904660817571, -0.26049899251419, 0
254, -0.11828545323577, -0.16004723167603, 0
255, -0.25625917886598, -0.38333782665847, 0
256, -0.29886298580567, -0.34100729152348, 0
257, 0.48113542068302, 0.40465022116673, 0
258, 0.22049543219899, 0.1723262759498, 0
259, 0.78960208638303, 0.15023108003511, 0
260, 0.2133942613544, 0.030021381422288, 0
261, 0.059085247385032, 0.019197602134261, 0
262, 0.84262679500834, -0.030457107558271, 0
263, 0.51617232784354, 0.35250019862899, 0
264, 0.79669422795336, 0.24116905484545, 0
265, 0.70528047592028, 0.3889796410904, 0
266, 0.32426758968193, 0.34242025706285, 0
267, 0.12703478212163, 0.14084450018113, 0
268, 0.35696004788365, 0.27987168202459, 0
269, 0.79742035685306, 0.21405540223764, 0
270, 0.68020546531244, 0.39451154329376, 0
271, 0.77774129173217, 0.31664164519763, 0
272, 0.76041355502414, 0.35596850047612, 0
273, 0.10434960841614, -0.025921221383003, 0
274, 0.42363688534136, 0.31231986825861, 0
275, 0.39955767715696, 0.38032458611248, 0
276, 0.16745592641277, 0.077858909508828, 0
277, 0.10999360683105, 0.11883693058907, 0
278, 0.086722316906557, 0.066249540374357, 0
279, 0.40649324965626, 0.30503239551085, 0
280, 0.3483192979921, 0.35645425291147, 0
281, 0.46329307156698, 0.32822367990802, 0
282, 0.4536203962282, 0.39854097694261, 0
283, 0.7485120379893, 0.077467374317995, 0
284, 0.10571252623308, 0.045221876175556, 0
285, 0.78277323392326, 0.026097269853367, 0
286, 0.65490671846854, 0.019586282446582, 0
287, 0.15857791037982, 0.026395493058084, 0
288, 0.094231633615044, 0.020258832807737, 0
289, 0.76111000050397, 0.28959820569331, 0
290, 0.14910675551644, 0.13747228744486, 0
291, 0.67889316287614, 0.35776713815195, 0
292, 0.77028244929447, 0.23930318103676, 0
293, 0.25881236767209, 0.25262699720023, 0
294, 0.72609342343911, 0.23385521650917, 0
295, 0.18037247531565, 0.17070947489469, 0
296, 0.74894515858656, 0.14765486850122, 0
297, 0.66238821333401, 0.3320019305835, 0
298, 0.21780767949332, 0.21333875445389, 0
299, 0.18877647955611, -0.00080270974831958, 0
300, 0.34892609954932, 0.30187580776759, 0
301, 0.72646732181615, 0.16428312203293, 0
302, 0.61401984780518, 0.35045055193171, 0
303, 0.36260465425963, 0.33602321550117, 0
304, 0.42788395532968, 0.33289075697292, 0
305, 0.33033932639074, -0.0001843224993626, 0
306, 0.58992326860864, 0.0011606887800969, 0
307, 0.27308527538741, 0.0002267951264947, 0
308, 0.71407613734308, 0.28136996611096, 0
309, -0.1775172249774, -0.26112520520456, 0
310, -0.076179192776002, -0.16027143891467, 0
311, 0.023970206973936, -0.060495224483593, 0
312, -0.096382528902633, -0.18045405566882, 0
313, -0.036032347762134, -0.1199982868334, 0
314, -0.25769263158612, -0.34183217143741, 0
315, 0.15031386564517, 0.099544307885999, 0
316, 0.71235953703221, 0.11750730506938, 0
317, 0.81279370409053, -0.001483155409145, 0
318, 0.49733329608404, 0.36509449535317, 0
319, 0.44135783964293, 0.36891064538671, 0
320, 0.21582889778967, 0.25436636539364, 0
321, 0.080210882282738, -0.0020271986033546, 0
322, 0.53413191791866, 0.41204788132944, 0
323, 0.68223425613379, 0.078225302636778, 0
324, 0.70058231577417, -0.030588797255975, 0
325, 0.24176162266451, 0.030263807212029, 0
326, 0.067003479916593, -0.060715162160679, 0
327, 0.75758172232043, -0.031655586509805, 0
328, 0.61993386469919, -0.030518805488122, 0
329, 0.0062741349715361, -0.12046091205022, 0
330, -0.054150587660471, -0.18099416756725, 0
331, -0.11507606364132, -0.24160945606565, 0
332, -0.17580605418342, -0.30233615546896, 0
333, 0.13817803726275, -0.03100148220506, 0
334, 0.47015024364612, 0.02939030790677, 0
335, 0.52712376625027, 0.029566411272428, 0
336, 0.41320976400092, 0.029509677583487, 0
337, 0.32748018465977, 0.029925007682648, 0
338, 0.21945540785714, -0.02993312740895, 0
339, 0.040949807473171, -0.00097296278305911, 0
340, 0.84172373876584, -0.00066935767760633, 0
341, 0.001791186054148, -0.040300212718547, 0
342, 0.36145411853962, -0.030277461193069, 0
343, 0.27609336754762, -0.029901064238867, 0
344, 0.41841559305226, -0.03056876071049, 0
345, 0.53190507470555, -0.030521337084223, 0
346, 0.47514459914196, -0.030690968844219, 0
347, -0.23902674913071, -0.28059845788697, 0
348, -0.17882811245387, -0.22034775892431, 0
349, -0.13845735572684, -0.18014312390368, 0
350, -0.078106231257852, -0.11992319556422, 0
351, -0.038145895440084, -0.079908691473075, 0
352, -0.21609921932477, -0.34277919101229, 0
353, 0.8141114529112, -0.030874357716341, 0
354, 0.54953470795321, 0.3549784509716, 0
355, 0.77102835062092, 0.12064497243771, 0
356, 0.15885635686041, 0.19101426780961, 0
357, 0.59089115257717, 0.42251556116815, 0
358, 0.3877943266135, 0.34770814085066, 0
359, 0.1288629688114, 0.10461352040091, 0
360, 0.61609319806018, 0.034792406373386, 0
361, 0.23948698615849, 0.19314266048333, 0
362, 0.27925053192499, 0.30952937392609, 0
363, 0.28018237811997, 0.23150213168204, 0
364, 0.7967576839735, 0.19104275961593, 0
365, 0.65353237418277, 0.40050934942285, 0
366, 0.32552262549162, 0.26863844387329, 0
367, 0.39801287915522, 0.32562578984831, 0
368, 0.41414034743799, 0.35821028246597, 0
369, 0.17978601153735, 0.12545869945034, 0
370, 0.31820078675031, 0.30699827501828, 0
371, 0.78672890240116, 0.29274283670332, 0
372, 0.73807946431513, 0.36479317191543, 0
373, 0.45371270131862, 0.34797774640504, 0
374, 0.66687659989609, -0.0054852836675316, 0
375, 0.13607981878447, 0.12170249517918, 0
376, 0.35886370819394, -0.00032681519914213, 0
377, 0.15348123117329, 0.052147177956293, 0
378, 0.11537526851997, 0.070218426266178, 0
379, 0.75267650828013, 0.31300253324087, 0
380, 0.37303207191321, 0.31446360832291, 0
381, 0.49709533469264, 0.38211318862399, 0
382, 0.33864194649824, 0.32234551966937, 0
383, 0.47843420371284, 0.35763511272224, 0
384, 0.46727986285074, 0.37709247870066, 0
385, 0.75545481945523, 0.042859134635699, 0
386, 0.71694089621444, 0.082832666245708, 0
387, 0.75654770369791, -0.0037136402474901, 0
388, 0.6969772157944, 0.004597401045803, 0
389, 0.60446656541733, 0.37859951402104, 0
390, 0.70993972734964, 0.36131973883429, 0
391, 0.54466793834208, 0.38428112693442, 0
392, 0.7685523297953, 0.17699547819089, 0
393, 0.62632366555563, 0.0025152631507678, 0
394, 0.7300089758008, 0.13043466567188, 0
395, 0.74403934963847, 0.33684492144351, 0
396, 0.67766795371213, 0.033934008220259, 0
397, 0.27971755676425, 0.27043172823629, 0
398, 0.23795955841472, 0.23344977882471, 0
399, 0.24458795076045, 0.0002861408785855, 0
400, 0.76719764315883, 0.26501135096895, 0
401, 0.38745459975684, -0.0005129087584994, 0
402, 0.50136242727247, -0.00082813702119084, 0
403, 0.44455637486414, -0.00083120079557258, 0
404, 0.5591292938713, -4.4073117517893e-05, 0
405, 0.30176953532411, -1.507088650108e-05, 0
406, 0.044111255754729, -0.040930530815195, 0
407, 0.16269421658411, -0.0018475474658996, 0
408, -0.13700301336833, -0.2207625564132, 0
409, 0.0039907113666809, -0.080191425728096, 0
410, -0.19757689681573, -0.28131473503996, 0
411, -0.23769022545934, -0.32163614957524, 0
412, -0.056063403817426, -0.14018477804161, 0
413, -0.11665043384061, -0.20064158958384, 0
414, 0.12721354194272, 0.026266098583115, 0
415, 0.14385684024137, -0.0024833999444152, 0
416, 0.29950574178935, 0.28894912078414, 0
417, -0.15723314813303, -0.24099761949498, 0
418, 0.21645821489129, -6.4450692714726e-05, 0
419, 0.14922153717162, 0.075780381362591, 0
420, 0.78442410819259, -0.0027419423860629, 0
421, -0.015998745548905, -0.10009256341197, 0
422, 0.11598642168329, -0.0042437382408758, 0
423, 0.063383411751391, -0.021575626068232, 0
424, 0.64775984779082, -0.012449174145678, 0
425, 0.74143250952663, 0.10707793928361, 0
426, 0.33069491299244, 0.29375822115471, 0
427, 0.13389667420808, 0.049380725362416, 0
428, 0.77005815450521, 0.21201119003809, 0
429, 0.16199014340357, 0.15070505177098, 0
430, 0.51702323253267, 0.38259134421611, 0
431, 0.15186121119007, 0.12174621265626, 0
432, 0.19885228712089, 0.19222525676166, 0
433, 0.72837184973188, 0.30958073847809, 0
434, 0.74341786511933, 0.26190697328319, 0
435, 0.62271638894315, 0.37557241175836, 0
436, 0.64795195242968, 0.3697600865574, 0
437, 0.59984792752187, 0.39798309724144, 0
438, 0.71015802989268, 0.026155634869216, 0
439, 0.7290551005954, -0.0024463514813784, 0
440, 0.52989228873637, -0.00053827142895243, 0
441, 0.41597805002863, -0.00065095051316028, 0
442, 0.47287317145063, -0.00080069245090562, 0
443, -0.21761291408112, -0.30149332633047, 0
444, 0.70370375956423, 0.052859586914602, 0
445, 0.7360473267666, 0.048410222879189, 0
446, 0.57245655131148, 0.39010585031463, 0
447, 0.75634320132297, 0.023171188818947, 0
448, 0.72404584209329, 0.10187002616774, 0
449, 0.7368615214706, 0.28575069985798, 0
450, 0.71884069724689, 0.33434800054983, 0
451, 0.69465035806367, 0.32802985373226, 0
452, 0.7464972034294, 0.23736299277889, 0
453, 0.72777775365326, 0.21617016429795, 0
454, 0.74472112072528, 0.21309582687181, 0
455, 0.73100267549233, 0.023731722282916, 0
456, 0.67807202730378, 0.32077558119902, 0
******* E L E M E N T S *************
*ELEMENT, type=CPS4, ELSET=Surface1
1, 446, 218, 322, 391
2, 180, 397, 293, 363
3, 295, 356, 208, 429
4, 175, 301, 296, 392
5, 301, 179, 394, 296
6, 298, 361, 183, 398
7, 450, 395, 372, 390
8, 361, 298, 432, 258
9, 447, 387, 420, 285
10, 285, 420, 317, 217
11, 407, 241, 216, 299
12, 305, 337, 248, 405
13, 444, 438, 455, 445
14, 299, 216, 338, 418
15, 408, 331, 226, 413
16, 310, 330, 227, 412
17, 418, 338, 188, 399
18, 393, 360, 246, 306
19, 441, 336, 249, 401
20, 440, 335, 222, 402
21, 442, 334, 190, 403
22, 337, 305, 376, 220
23, 306, 246, 223, 404
24, 404, 223, 335, 440
25, 399, 188, 343, 307
26, 403, 190, 336, 441
27, 402, 222, 334, 442
28, 263, 430, 381, 318
29, 410, 332, 245, 309
30, 331, 408, 417, 225
31, 332, 410, 443, 224
32, 421, 329, 228, 409
33, 309, 245, 225, 417
34, 196, 313, 421, 351
35, 411, 352, 224, 443
36, 352, 411, 314, 232
37, 388, 396, 286, 374
38, 144, 316, 394, 179
39, 434, 452, 292, 400
40, 169, 168, 198, 369
41, 235, 356, 295, 432
42, 316, 448, 425, 394
43, 407, 287, 414, 415
44, 437, 357, 218, 446
45, 369, 198, 295, 429
46, 175, 146, 145, 301
47, 392, 428, 454, 175
48, 217, 317, 340, 234
49, 289, 400, 213, 371
50, 212, 94, 95, 320
51, 317, 420, 181, 353
52, 370, 184, 362, 416
53, 398, 320, 211, 298
54, 208, 356, 98, 99
55, 314, 230, 255, 232
56, 366, 426, 370, 416
57, 416, 362, 240, 397
58, 432, 298, 211, 235
59, 3, 56, 233, 55
60, 81, 218, 357, 6
61, 307, 221, 325, 399
62, 123, 256, 122, 8
63, 10, 140, 360, 247
64, 445, 385, 5, 283
65, 406, 311, 242, 326
66, 125, 1, 12, 255
67, 415, 333, 241, 407
68, 291, 297, 456, 451
69, 340, 238, 239, 234
70, 61, 5, 285, 217
71, 393, 328, 236, 424
72, 238, 233, 56, 57
73, 421, 313, 243, 329
74, 310, 312, 244, 330
75, 9, 182, 260, 126
76, 388, 324, 237, 439
77, 434, 172, 294, 452
78, 324, 388, 374, 202
79, 255, 230, 124, 125
80, 256, 123, 124, 230
81, 445, 455, 447, 385
82, 246, 360, 140, 139
83, 409, 228, 242, 311
84, 355, 425, 283, 207
85, 392, 364, 269, 428
86, 393, 306, 187, 328
87, 202, 374, 424, 236
88, 452, 454, 428, 292
89, 407, 299, 182, 287
90, 406, 326, 191, 423
91, 324, 202, 48, 49
92, 412, 227, 243, 313
93, 413, 226, 244, 312
94, 217, 234, 60, 61
95, 239, 59, 60, 234
96, 212, 293, 397, 240
97, 327, 387, 439, 237
98, 242, 27, 28, 326
99, 237, 324, 49, 50
100, 422, 273, 29, 333
101, 260, 325, 127, 126
102, 79, 357, 437, 215
103, 414, 422, 333, 415
104, 202, 236, 47, 48
105, 372, 209, 265, 390
106, 327, 237, 50, 51
107, 365, 78, 79, 215
108, 213, 264, 68, 69
109, 209, 75, 76, 265
110, 283, 5, 62, 207
111, 214, 259, 64, 65
112, 207, 62, 63, 355
113, 269, 364, 66, 67
114, 259, 355, 63, 64
115, 271, 371, 70, 71
116, 264, 269, 67, 68
117, 270, 77, 78, 365
118, 265, 76, 77, 270
119, 206, 271, 71, 72
120, 272, 73, 74, 372
121, 228, 26, 27, 242
122, 238, 57, 58, 239
123, 405, 248, 221, 307
124, 401, 249, 220, 376
125, 355, 259, 392, 296
126, 347, 443, 410, 253
127, 235, 211, 96, 97
128, 240, 93, 94, 212
129, 320, 398, 293, 212
130, 211, 320, 95, 96
131, 79, 80, 6, 357
132, 181, 327, 51, 52
133, 66, 364, 214, 65
134, 391, 322, 210, 430
135, 356, 235, 97, 98
136, 430, 210, 257, 381
137, 338, 216, 31, 32
138, 241, 30, 31, 216
139, 2, 191, 326, 28
140, 236, 328, 46, 47
141, 329, 243, 24, 25
142, 227, 23, 24, 243
143, 330, 244, 21, 22
144, 244, 226, 20, 21
145, 331, 225, 18, 19
146, 225, 245, 17, 18
147, 332, 224, 15, 16
148, 228, 329, 25, 26
149, 227, 330, 22, 23
150, 226, 331, 19, 20
151, 245, 332, 16, 17
152, 75, 209, 372, 74
153, 362, 92, 93, 240
154, 241, 333, 29, 30
155, 317, 353, 262, 340
156, 353, 181, 52, 53
157, 261, 178, 7, 104
158, 336, 190, 134, 133
159, 334, 222, 136, 135
160, 335, 223, 138, 137
161, 223, 246, 139, 138
162, 337, 220, 131, 130
163, 249, 132, 131, 220
164, 248, 129, 128, 221
165, 325, 221, 128, 127
166, 190, 334, 135, 134
167, 222, 335, 137, 136
168, 249, 336, 133, 132
169, 344, 441, 401, 185
170, 346, 442, 403, 250
171, 248, 337, 130, 129
172, 345, 440, 402, 186
173, 339, 261, 104, 105
174, 307, 343, 251, 405
175, 177, 323, 444, 386
176, 29, 273, 191, 2
177, 322, 82, 83, 210
178, 239, 58, 4, 59
179, 341, 219, 106, 107
180, 339, 105, 106, 219
181, 5, 385, 447, 285
182, 364, 392, 259, 214
183, 423, 339, 219, 406
184, 311, 341, 197, 409
185, 328, 187, 45, 46
186, 342, 189, 36, 37
187, 346, 41, 42, 186
188, 345, 186, 42, 43
189, 344, 185, 38, 39
190, 345, 43, 44, 252
191, 343, 188, 33, 34
192, 346, 250, 40, 41
193, 343, 34, 35, 251
194, 338, 32, 33, 188
195, 342, 37, 38, 185
196, 344, 39, 40, 250
197, 405, 251, 189, 305
198, 376, 305, 189, 342
199, 441, 344, 250, 403
200, 376, 342, 185, 401
201, 442, 346, 186, 402
202, 306, 404, 252, 187
203, 440, 345, 252, 404
204, 347, 119, 120, 192
205, 347, 253, 118, 119
206, 348, 116, 117, 193
207, 348, 194, 115, 116
208, 349, 114, 115, 194
209, 349, 254, 113, 114
210, 350, 111, 112, 195
211, 351, 109, 110, 196
212, 350, 196, 110, 111
213, 351, 197, 108, 109
214, 341, 107, 108, 197
215, 417, 408, 194, 348
216, 413, 349, 194, 408
217, 312, 310, 195, 254
218, 417, 348, 193, 309
219, 412, 350, 195, 310
220, 44, 45, 187, 252
221, 35, 36, 189, 251
222, 311, 406, 219, 341
223, 288, 321, 273, 422
224, 171, 308, 449, 433
225, 144, 143, 177, 316
226, 224, 352, 14, 15
227, 142, 141, 173, 323
228, 372, 395, 206, 272
229, 451, 171, 433, 450
230, 117, 118, 253, 193
231, 112, 113, 254, 195
232, 253, 410, 309, 193
233, 184, 91, 92, 362
234, 361, 166, 165, 183
235, 70, 371, 213, 69
236, 443, 347, 192, 411
237, 297, 174, 152, 151
238, 301, 145, 144, 179
239, 260, 418, 399, 325
240, 363, 164, 163, 180
241, 308, 149, 148, 172
242, 302, 176, 11, 153
243, 308, 171, 150, 149
244, 323, 177, 143, 142
245, 429, 208, 267, 290
246, 449, 308, 172, 434
247, 167, 166, 361, 258
248, 382, 266, 184, 370
249, 381, 257, 282, 384
250, 419, 377, 9, 276
251, 354, 263, 155, 154
252, 366, 268, 300, 426
253, 255, 12, 13, 232
254, 352, 232, 13, 14
255, 72, 73, 272, 206
256, 181, 420, 387, 327
257, 154, 11, 176, 354
258, 256, 231, 121, 122
259, 444, 323, 173, 396
260, 168, 167, 258, 198
261, 267, 208, 99, 100
262, 266, 90, 91, 184
263, 9, 377, 287, 182
264, 210, 83, 84, 257
265, 400, 289, 449, 434
266, 446, 391, 354, 176
267, 418, 260, 182, 299
268, 120, 121, 231, 192
269, 312, 254, 349, 413
270, 313, 196, 350, 412
271, 409, 197, 351, 421
272, 164, 363, 183, 165
273, 192, 231, 314, 411
274, 367, 304, 368, 358
275, 400, 292, 264, 213
276, 238, 340, 262, 233
277, 379, 395, 450, 433
278, 432, 295, 198, 258
279, 353, 53, 54, 262
280, 233, 262, 54, 55
281, 162, 366, 180, 163
282, 371, 271, 379, 289
283, 366, 162, 161, 268
284, 303, 280, 266, 382
285, 388, 438, 444, 396
286, 280, 89, 90, 266
287, 156, 155, 263, 199
288, 384, 282, 229, 319
289, 359, 375, 267, 277
290, 396, 173, 247, 286
291, 218, 81, 82, 322
292, 316, 177, 386, 448
293, 369, 200, 170, 169
294, 257, 84, 85, 282
295, 215, 435, 436, 365
296, 230, 314, 231, 256
297, 277, 267, 100, 101
298, 160, 203, 268, 161
299, 141, 10, 247, 173
300, 263, 318, 383, 199
301, 147, 294, 172, 148
302, 273, 321, 423, 191
303, 268, 203, 380, 300
304, 358, 204, 280, 303
305, 428, 269, 264, 292
306, 390, 265, 270, 291
307, 153, 152, 174, 302
308, 204, 88, 89, 280
309, 199, 281, 157, 156
310, 391, 430, 263, 354
311, 150, 456, 297, 151
312, 291, 270, 365, 436
313, 319, 229, 275, 368
314, 416, 397, 180, 366
315, 203, 160, 159, 279
316, 282, 85, 86, 229
317, 199, 383, 373, 281
318, 422, 414, 284, 288
319, 203, 279, 367, 380
320, 201, 277, 101, 102
321, 178, 278, 103, 7
322, 378, 359, 277, 201
323, 288, 284, 278, 178
324, 374, 286, 393, 424
325, 275, 87, 88, 204
326, 368, 275, 204, 358
327, 286, 247, 360, 393
328, 281, 205, 158, 157
329, 278, 201, 102, 103
330, 176, 389, 437, 446
331, 279, 159, 158, 274
332, 281, 373, 304, 205
333, 229, 86, 87, 275
334, 414, 427, 378, 284
335, 200, 276, 9, 170
336, 279, 274, 304, 367
337, 387, 447, 455, 439
338, 158, 205, 304, 274
339, 284, 378, 201, 278
340, 146, 453, 294, 147
341, 439, 455, 438, 388
342, 452, 294, 453, 454
343, 291, 451, 450, 390
344, 315, 359, 378, 419
345, 419, 276, 200, 315
346, 304, 373, 319, 368
347, 369, 431, 315, 200
348, 414, 287, 377, 427
349, 380, 367, 358, 303
350, 395, 379, 271, 206
351, 377, 419, 378, 427
352, 426, 300, 382, 370
353, 267, 375, 431, 290
354, 150, 171, 451, 456
355, 384, 319, 373, 383
356, 303, 382, 300, 380
357, 381, 384, 383, 318
358, 369, 429, 290, 431
359, 359, 315, 431, 375
360, 146, 175, 454, 453
361, 289, 379, 433, 449
362, 291, 436, 174, 297
363, 436, 435, 302, 174
364, 437, 389, 435, 215
365, 178, 261, 321, 288
366, 423, 321, 261, 339
367, 444, 445, 283, 386
368, 425, 448, 386, 283
369, 183, 363, 293, 398
370, 176, 302, 435, 389
371, 296, 394, 425, 355
*ELSET,ELSET=inlet
119, 120, 121, 122, 
*ELSET,ELSET=outlet
47, 48, 49, 50, 
*ELSET,ELSET=walls
1, 2, 3, 4, 5, 6, 7, 8, 9, 10, 
11, 12, 13, 14, 15, 16, 17, 18, 19, 20, 
21, 22, 23, 24, 25, 26, 27, 28, 29, 30, 
31, 32, 33, 34, 35, 36, 37, 38, 39, 40, 
41, 42, 43, 44, 45, 46, 51, 52, 53, 54, 
55, 56, 57, 58, 59, 60, 61, 62, 63, 64, 
65, 66, 67, 68, 69, 70, 71, 72, 73, 74, 
75, 76, 77, 78, 79, 80, 81, 82, 83, 84, 
85, 86, 87, 88, 89, 90, 91, 92, 93, 94, 
95, 96, 97, 98, 99, 100, 101, 102, 103, 104, 
105, 106, 107, 108, 109, 110, 111, 112, 113, 114, 
115, 116, 117, 118, 123, 124, 125, 126, 127, 128, 
129, 130, 131, 132, 133, 134, 135, 136, 137, 138, 
139, 140, 141, 142, 143, 144, 145, 146, 147, 148, 
149, 150, 151, 152, 153, 154, 155, 156, 157, 158, 
159, 160, 161, 162, 163, 164, 165, 166, 167, 168, 
169, 170, 
*ELSET,ELSET=domain
171, 172, 173, 174, 175, 176, 177, 178, 179, 180, 
181, 182, 183, 184, 185, 186, 187, 188, 189, 190, 
191, 192, 193, 194, 195, 196, 197, 198, 199, 200, 
201, 202, 203, 204, 205, 206, 207, 208, 209, 210, 
211, 212, 213, 214, 215, 216, 217, 218, 219, 220, 
221, 222, 223, 224, 225, 226, 227, 228, 229, 230, 
231, 232, 233, 234, 235, 236, 237, 238, 239, 240, 
241, 242, 243, 244, 245, 246, 247, 248, 249, 250, 
251, 252, 253, 254, 255, 256, 257, 258, 259, 260, 
261, 262, 263, 264, 265, 266, 267, 268, 269, 270, 
271, 272, 273, 274, 275, 276, 277, 278, 279, 280, 
281, 282, 283, 284, 285, 286, 287, 288, 289, 290, 
291, 292, 293, 294, 295, 296, 297, 298, 299, 300, 
301, 302, 303, 304, 305, 306, 307, 308, 309, 310, 
311, 312, 313, 314, 315, 316, 317, 318, 319, 320, 
321, 322, 323, 324, 325, 326, 327, 328, 329, 330, 
331, 332, 333, 334, 335, 336, 337, 338, 339, 340, 
341, 342, 343, 344, 345, 346, 347, 348, 349, 350, 
351, 352, 353, 354, 355, 356, 357, 358, 359, 360, 
361, 362, 363, 364, 365, 366, 367, 368, 369, 370, 
371, 372, 373, 374, 375, 376, 377, 378, 379, 380, 
381, 382, 383, 384, 385, 386, 387, 388, 389, 390, 
391, 392, 393, 394, 395, 396, 397, 398, 399, 400, 
401, 402, 403, 404, 405, 406, 407, 408, 409, 410, 
411, 412, 413, 414, 415, 416, 417, 418, 419, 420, 
421, 422, 423, 424, 425, 426, 427, 428, 429, 430, 
431, 432, 433, 434, 435, 436, 437, 438, 439, 440, 
441, 442, 443, 444, 445, 446, 447, 448, 449, 450, 
451, 452, 453, 454, 455, 456, 457, 458, 459, 460, 
461, 462, 463, 464, 465, 466, 467, 468, 469, 470, 
471, 472, 473, 474, 475, 476, 477, 478, 479, 480, 
481, 482, 483, 484, 485, 486, 487, 488, 489, 490, 
491, 492, 493, 494, 495, 496, 497, 498, 499, 500, 
501, 502, 503, 504, 505, 506, 507, 508, 509, 510, 
511, 512, 513, 514, 515, 516, 517, 518, 519, 520, 
521, 522, 523, 524, 525, 526, 527, 528, 529, 530, 
531, 532, 533, 534, 535, 536, 537, 538, 539, 540, 
541, 
*NSET,NSET=inlet
1, 8, 123, 124, 125, 
*NSET,NSET=outlet
3, 4, 56, 57, 58, 
*NSET,NSET=walls
1, 2, 3, 4, 5, 6, 7, 8, 9, 10, 
11, 12, 13, 14, 15, 16, 17, 18, 19, 20, 
21, 22, 23, 24, 25, 26, 27, 28, 29, 30, 
31, 32, 33, 34, 35, 36, 37, 38, 39, 40, 
41, 42, 43, 44, 45, 46, 47, 48, 49, 50, 
51, 52, 53, 54, 55, 59, 60, 61, 62, 63, 
64, 65, 66, 67, 68, 69, 70, 71, 72, 73, 
74, 75, 76, 77, 78, 79, 80, 81, 82, 83, 
84, 85, 86, 87, 88, 89, 90, 91, 92, 93, 
94, 95, 96, 97, 98, 99, 100, 101, 102, 103, 
104, 105, 106, 107, 108, 109, 110, 111, 112, 113, 
114, 115, 116, 117, 118, 119, 120, 121, 122, 126, 
127, 128, 129, 130, 131, 132, 133, 134, 135, 136, 
137, 138, 139, 140, 141, 142, 143, 144, 145, 146, 
147, 148, 149, 150, 151, 152, 153, 154, 155, 156, 
157, 158, 159, 160, 161, 162, 163, 164, 165, 166, 
167, 168, 169, 170, 
*NSET,NSET=domain
1, 2, 3, 4, 5, 6, 7, 8, 9, 10, 
11, 12, 13, 14, 15, 16, 17, 18, 19, 20, 
21, 22, 23, 24, 25, 26, 27, 28, 29, 30, 
31, 32, 33, 34, 35, 36, 37, 38, 39, 40, 
41, 42, 43, 44, 45, 46, 47, 48, 49, 50, 
51, 52, 53, 54, 55, 56, 57, 58, 59, 60, 
61, 62, 63, 64, 65, 66, 67, 68, 69, 70, 
71, 72, 73, 74, 75, 76, 77, 78, 79, 80, 
81, 82, 83, 84, 85, 86, 87, 88, 89, 90, 
91, 92, 93, 94, 95, 96, 97, 98, 99, 100, 
101, 102, 103, 104, 105, 106, 107, 108, 109, 110, 
111, 112, 113, 114, 115, 116, 117, 118, 119, 120, 
121, 122, 123, 124, 125, 126, 127, 128, 129, 130, 
131, 132, 133, 134, 135, 136, 137, 138, 139, 140, 
141, 142, 143, 144, 145, 146, 147, 148, 149, 150, 
151, 152, 153, 154, 155, 156, 157, 158, 159, 160, 
161, 162, 163, 164, 165, 166, 167, 168, 169, 170, 
171, 172, 173, 174, 175, 176, 177, 178, 179, 180, 
181, 182, 183, 184, 185, 186, 187, 188, 189, 190, 
191, 192, 193, 194, 195, 196, 197, 198, 199, 200, 
201, 202, 203, 204, 205, 206, 207, 208, 209, 210, 
211, 212, 213, 214, 215, 216, 217, 218, 219, 220, 
221, 222, 223, 224, 225, 226, 227, 228, 229, 230, 
231, 232, 233, 234, 235, 236, 237, 238, 239, 240, 
241, 242, 243, 244, 245, 246, 247, 248, 249, 250, 
251, 252, 253, 254, 255, 256, 257, 258, 259, 260, 
261, 262, 263, 264, 265, 266, 267, 268, 269, 270, 
271, 272, 273, 274, 275, 276, 277, 278, 279, 280, 
281, 282, 283, 284, 285, 286, 287, 288, 289, 290, 
291, 292, 293, 294, 295, 296, 297, 298, 299, 300, 
301, 302, 303, 304, 305, 306, 307, 308, 309, 310, 
311, 312, 313, 314, 315, 316, 317, 318, 319, 320, 
321, 322, 323, 324, 325, 326, 327, 328, 329, 330, 
331, 332, 333, 334, 335, 336, 337, 338, 339, 340, 
341, 342, 343, 344, 345, 346, 347, 348, 349, 350, 
351, 352, 353, 354, 355, 356, 357, 358, 359, 360, 
361, 362, 363, 364, 365, 366, 367, 368, 369, 370, 
371, 372, 373, 374, 375, 376, 377, 378, 379, 380, 
381, 382, 383, 384, 385, 386, 387, 388, 389, 390, 
391, 392, 393, 394, 395, 396, 397, 398, 399, 400, 
401, 402, 403, 404, 405, 406, 407, 408, 409, 410, 
411, 412, 413, 414, 415, 416, 417, 418, 419, 420, 
421, 422, 423, 424, 425, 426, 427, 428, 429, 430, 
431, 432, 433, 434, 435, 436, 437, 438, 439, 440, 
441, 442, 443, 444, 445, 446, 447, 448, 449, 450, 
451, 452, 453, 454, 455, 456, 
