*Heading
 /Users/jfarrell/Desktop/ElectronKinetics.jl/projects/nonlinearities/mesh/tesla_valve.inp
*NODE
1, -0.2551, -0.4249, 0
2, 0.1097, -0.06, 0
3, 0.9, -0.06, 0
4, 0.9, 0.06, 0
5, 0.78, 0.06, 0
6, 0.5752, 0.4437, 0
7, 0.06, 0.06, 0
8, -0.34, -0.34, 0
9, 0.1825, 0.06, 0
10, 0.6375, 0.06, 0
11, 0.577, 0.3271, 0
12, -0.23483333333333, -0.40462777777778, 0
13, -0.21456666666667, -0.38435555555556, 0
14, -0.1943, -0.36408333333333, 0
15, -0.17403333333333, -0.34381111111111, 0
16, -0.15376666666667, -0.32353888888889, 0
17, -0.1335, -0.30326666666667, 0
18, -0.11323333333333, -0.28299444444444, 0
19, -0.092966666666667, -0.26272222222222, 0
20, -0.0727, -0.24245, 0
21, -0.052433333333333, -0.22217777777778, 0
22, -0.032166666666667, -0.20190555555556, 0
23, -0.0119, -0.18163333333333, 0
24, 0.0083666666666667, -0.16136111111111, 0
25, 0.028633333333333, -0.14108888888889, 0
26, 0.0489, -0.12081666666667, 0
27, 0.069166666666667, -0.10054444444444, 0
28, 0.089433333333333, -0.080272222222222, 0
29, 0.137925, -0.06, 0
30, 0.16615, -0.06, 0
31, 0.194375, -0.06, 0
32, 0.2226, -0.06, 0
33, 0.250825, -0.06, 0
34, 0.27905, -0.06, 0
35, 0.307275, -0.06, 0
36, 0.3355, -0.06, 0
37, 0.363725, -0.06, 0
38, 0.39195, -0.06, 0
39, 0.420175, -0.06, 0
40, 0.4484, -0.06, 0
41, 0.476625, -0.06, 0
42, 0.50485, -0.06, 0
43, 0.533075, -0.06, 0
44, 0.5613, -0.06, 0
45, 0.589525, -0.06, 0
46, 0.61775, -0.06, 0
47, 0.645975, -0.06, 0
48, 0.6742, -0.06, 0
49, 0.702425, -0.06, 0
50, 0.73065, -0.06, 0
51, 0.758875, -0.06, 0
52, 0.7871, -0.06, 0
53, 0.815325, -0.06, 0
54, 0.84355, -0.06, 0
55, 0.871775, -0.06, 0
56, 0.9, -0.03, 0
57, 0.9, 2.0122792321331e-16, 0
58, 0.9, 0.03, 0
59, 0.87, 0.06, 0
60, 0.84, 0.06, 0
61, 0.81, 0.06, 0
62, 0.79240065928232, 0.084398736341677, 0
63, 0.80319544004477, 0.10954842742047, 0
64, 0.8121972427586, 0.13539315080074, 0
65, 0.81919006230678, 0.1618509121592, 0
66, 0.82392857161944, 0.18880224548489, 0
67, 0.82614209089808, 0.2160753268124, 0
68, 0.82554672109471, 0.24342924116201, 0
69, 0.82186990669568, 0.27053874858778, 0
70, 0.81489039189455, 0.29698834498482, 0
71, 0.80449038349634, 0.32228670873951, 0
72, 0.79070568059367, 0.34591030498368, 0
73, 0.77375035036434, 0.36737208958812, 0
74, 0.75399765054195, 0.38629286345582, 0
75, 0.73192111275919, 0.40244581666921, 0
76, 0.70802153200225, 0.41575937440946, 0
77, 0.68276760826567, 0.426286822901, 0
78, 0.65656296371359, 0.43416298581868, 0
79, 0.62973670754866, 0.43956463023055, 0
80, 0.60254854993669, 0.44268175669488, 0
81, 0.54673337059504, 0.44271056036719, 0
82, 0.51839692959658, 0.4398081497855, 0
83, 0.49029580047514, 0.43514526874401, 0
84, 0.46251330549625, 0.42885414108286, 0
85, 0.43511728326148, 0.42104864532146, 0
86, 0.40816479025614, 0.41182647317856, 0
87, 0.38170566252494, 0.40127122902645, 0
88, 0.35578521843781, 0.38945432831167, 0
89, 0.33044639096285, 0.37643666637625, 0
90, 0.30573146291175, 0.36227005932951, 0
91, 0.28168355216135, 0.34699848563673, 0
92, 0.25834795564688, 0.33065916426409, 0
93, 0.23577344162351, 0.31328351048634, 0
94, 0.21401356959311, 0.29489801651417, 0
95, 0.19312810128282, 0.27552510182706, 0
96, 0.17318458431508, 0.25518400348329, 0
97, 0.15426016651567, 0.23389177144504, 0
98, 0.13644373130139, 0.21166448651875, 0
99, 0.11983841665301, 0.18851883122273, 0
100, 0.10456459863137, 0.16447423423139, 0
101, 0.090763363001925, 0.13955586864035, 0
102, 0.078600431854569, 0.11379894589848, 0
103, 0.068270304061951, 0.087254875126259, 0
104, 0.04, 0.04, 0
105, 0.02, 0.02, 0
106, -7.8722438391189e-17, -7.8722438391189e-17, 0
107, -0.02, -0.02, 0
108, -0.04, -0.04, 0
109, -0.06, -0.06, 0
110, -0.08, -0.08, 0
111, -0.1, -0.1, 0
112, -0.12, -0.12, 0
113, -0.14, -0.14, 0
114, -0.16, -0.16, 0
115, -0.18, -0.18, 0
116, -0.2, -0.2, 0
117, -0.22, -0.22, 0
118, -0.24, -0.24, 0
119, -0.26, -0.26, 0
120, -0.28, -0.28, 0
121, -0.3, -0.3, 0
122, -0.32, -0.32, 0
123, -0.318775, -0.361225, 0
124, -0.29755, -0.38245, 0
125, -0.276325, -0.403675, 0
126, 0.2109375, 0.06, 0
127, 0.239375, 0.06, 0
128, 0.2678125, 0.06, 0
129, 0.29625, 0.06, 0
130, 0.3246875, 0.06, 0
131, 0.353125, 0.06, 0
132, 0.3815625, 0.06, 0
133, 0.41, 0.06, 0
134, 0.4384375, 0.06, 0
135, 0.466875, 0.06, 0
136, 0.4953125, 0.06, 0
137, 0.52375, 0.06, 0
138, 0.5521875, 0.06, 0
139, 0.580625, 0.06, 0
140, 0.6090625, 0.06, 0
141, 0.65390634154307, 0.080732403681534, 0
142, 0.6689078056894, 0.10250160003619, 0
143, 0.68223423442053, 0.12533264141631, 0
144, 0.69351226067576, 0.14923880991658, 0
145, 0.70221638687691, 0.17419235735636, 0
146, 0.70760272943272, 0.20005690700063, 0
147, 0.70865131147699, 0.22644047424906, 0
148, 0.70413963351465, 0.25243294487089, 0
149, 0.69312854067103, 0.27638037822176, 0
150, 0.67585525968268, 0.29628544861477, 0
151, 0.65393097503873, 0.31094906255188, 0
152, 0.62930067960351, 0.32045355887816, 0
153, 0.60338186808029, 0.32556048089449, 0
154, 0.54934000969485, 0.3255813058809, 0
155, 0.52194048391624, 0.32147607763397, 0
156, 0.49495178091484, 0.31520564094766, 0
157, 0.468462115735, 0.30707658262986, 0
158, 0.44252884703327, 0.29731451778602, 0
159, 0.41719487306084, 0.28608716856696, 0
160, 0.39249778088657, 0.27351984997074, 0
161, 0.36847548763767, 0.25970589029112, 0
162, 0.3451702198974, 0.24471367781056, 0
163, 0.32263189713303, 0.22859144675337, 0
164, 0.30092160155334, 0.2113705191472, 0
165, 0.28011570975515, 0.1930674868127, 0
166, 0.26031132442608, 0.17368570300629, 0
167, 0.24163386992439, 0.15321644816403, 0
168, 0.22424817397657, 0.13164030187991, 0
169, 0.20837515743539, 0.10892974778526, 0
170, 0.19431754630565, 0.085055230815821, 0
171, 0.70450623079311, 0.30459077640174, 0
172, 0.7222312278335, 0.25792393038627, 0
173, 0.66434313549914, 0.058187508927723, 0
174, 0.63941920472164, 0.34342299882858, 0
175, 0.73739155474071, 0.18819513477342, 0
176, 0.58509026249905, 0.35967407002961, 0
177, 0.69726383149074, 0.099602133385726, 0
178, 0.074613419944258, 0.041395051239103, 0
179, 0.71879857346327, 0.14729301068347, 0
180, 0.30124155489043, 0.24825511299419, 0
181, 0.78574271672101, -0.031437843380021, 0
182, 0.18542882623383, 0.028679661075492, 0
183, 0.25944417366878, 0.21311522569519, 0
184, 0.30134294286428, 0.32672592050626, 0
185, 0.38999700327465, -0.030467212709464, 0
186, 0.50354480440543, -0.030735331686493, 0
187, 0.59055565531763, -0.029693020884266, 0
188, 0.24761222238049, -0.02977129512937, 0
189, 0.33312423507613, -0.030231358002142, 0
190, 0.4417436575052, 0.029397033425862, 0
191, 0.089255651555194, -0.040574693546949, 0
192, -0.25905746070701, -0.30061433591777, 0
193, -0.21890523440647, -0.26038048499274, 0
194, -0.15864659323111, -0.20040130373662, 0
195, -0.098549023876853, -0.13998802036349, 0
196, -0.058015176400638, -0.099661499872275, 0
197, -0.017944412822591, -0.059705804805055, 0
198, 0.20203218231883, 0.15058638639566, 0
199, 0.48841077830194, 0.33787608061742, 0
200, 0.17318286915996, 0.095649751006386, 0
201, 0.097663397063452, 0.092612768752289, 0
202, 0.67303474399523, -0.031988549340744, 0
203, 0.38240761030149, 0.29376786668512, 0
204, 0.3738571258912, 0.36926508451794, 0
205, 0.44583558062921, 0.32144843917921, 0
206, 0.76756494774653, 0.33873413695315, 0
207, 0.77220696126924, 0.092732718048813, 0
208, 0.14210052028102, 0.16850622844621, 0
209, 0.72351714544209, 0.38583886690251, 0
210, 0.50793459704155, 0.40864228768954, 0
211, 0.1956079399249, 0.23397721395987, 0
212, 0.23679316632668, 0.27395512822839, 0
213, 0.79325074866974, 0.26760636500102, 0
214, 0.80149502046839, 0.16689502860967, 0
215, 0.62708356725375, 0.40287580057521, 0
216, 0.19163381969674, -0.030289719566967, 0
217, 0.81130485904409, 0.028748871801943, 0
218, 0.56218552616505, 0.41621639106754, 0
219, 0.021604853148726, -0.020498741462054, 0
220, 0.35599302192545, 0.029826402418672, 0
221, 0.27022889596925, 0.030250307925701, 0
222, 0.49859314107732, 0.029389845035222, 0
223, 0.55604853539836, 0.029965470625595, 0
224, -0.19593230204022, -0.32245621583185, 0
225, -0.1351168771295, -0.26193212036799, 0
226, -0.034031552268405, -0.16063367335782, 0
227, -0.094948144551981, -0.22160653312912, 0
228, 0.026688817060877, -0.10011342762697, 0
229, 0.426656144517, 0.39045843005736, 0
230, -0.27764166099162, -0.36207815256827, 0
231, -0.27896951735477, -0.32079404339951, 0
232, -0.23620463266541, -0.36300977602612, 0
233, 0.8712768698609, -0.030208349017285, 0
234, 0.84078501347413, 0.029508759840678, 0
235, 0.17677037888687, 0.21271653101459, 0
236, 0.64692495155853, -0.032356445860301, 0
237, 0.72930644166733, -0.031041284482423, 0
238, 0.8708049172158, -0.00027798037830538, 0
239, 0.8703847943807, 0.029811436336526, 0
240, 0.25799205084964, 0.29205160609242, 0
241, 0.16492667267915, -0.030911538279026, 0
242, 0.046713445860656, -0.080271071491903, 0
243, -0.013682519049091, -0.14037716213787, 0
244, -0.074786359629633, -0.20130982293656, 0
245, -0.1553797776917, -0.28204235608926, 0
246, 0.58603620188638, 0.031225916130662, 0
247, 0.29892360999078, 0.030043961370363, 0
248, 0.38462818519708, 0.02964862883119, 0
249, 0.56079046267909, -0.030225310105868, 0
250, 0.44691157198653, -0.030728240495492, 0
251, 0.30463333565255, -0.0300806696786, 0
252, -0.17861214073377, -0.22038808439387, 0
253, -0.11867911094939, -0.16020633789525, 0
254, 0.64285289945729, 0.043425744564897, 0
255, -0.25625854781313, -0.38333607165271, 0
256, -0.29886223738359, -0.34100540182826, 0
257, 0.48113542068224, 0.40465022116625, 0
258, 0.22049543219294, 0.17232627594712, 0
259, 0.78960208638221, 0.15023108003324, 0
260, 0.21339426135287, 0.030021381423816, 0
261, 0.05907398893136, 0.019235573337215, 0
262, 0.84262679500835, -0.030457107558265, 0
263, 0.51617232784328, 0.35250019862877, 0
264, 0.79669422795234, 0.24116905483666, 0
265, 0.70528047592066, 0.38897964108951, 0
266, 0.32426758968208, 0.34242025706215, 0
267, 0.12703478212094, 0.14084450018114, 0
268, 0.35696004788371, 0.27987168202432, 0
269, 0.79742035685234, 0.21405540223132, 0
270, 0.68020546531319, 0.39451154329287, 0
271, 0.77774129173133, 0.31664164519433, 0
272, 0.7604135550241, 0.35596850047562, 0
273, 0.10434455896566, -0.025903013500238, 0
274, 0.42363688534135, 0.3123198682586, 0
275, 0.3995576771569, 0.38032458611245, 0
276, 0.16745592638805, 0.077858909543333, 0
277, 0.10999359849318, 0.11883694211921, 0
278, 0.086721445524774, 0.066251117849494, 0
279, 0.40649324965627, 0.3050323955108, 0
280, 0.34831929799216, 0.35645425291121, 0
281, 0.46329307156688, 0.32822367990799, 0
282, 0.45362039622774, 0.39854097694243, 0
283, 0.74851203798947, 0.077467374318098, 0
284, 0.10571150355369, 0.045223675747508, 0
285, 0.78277323392365, 0.026097269853713, 0
286, 0.65490671847011, 0.019586282447993, 0
287, 0.15857790056367, 0.026395508780749, 0
288, 0.094226753733881, 0.020270416763291, 0
289, 0.76111000050342, 0.28959820568375, 0
290, 0.14910675551455, 0.13747228744482, 0
291, 0.67889316287733, 0.35776713814971, 0
292, 0.77028244929502, 0.23930318102171, 0
293, 0.25881236767133, 0.25262699719217, 0
294, 0.72609342344302, 0.23385521649787, 0
295, 0.18037247530898, 0.17070947489345, 0
296, 0.748945158585, 0.14765486849762, 0
297, 0.66238821333492, 0.33200193058195, 0
298, 0.21780767948688, 0.21333875444702, 0
299, 0.1887764784529, -0.00080270796176157, 0
300, 0.34892609954948, 0.30187580776686, 0
301, 0.72646732181494, 0.16428312202955, 0
302, 0.61401984780756, 0.35045055193314, 0
303, 0.36260465425971, 0.3360232155008, 0
304, 0.42788395532964, 0.3328907569729, 0
305, 0.33033932639072, -0.00018432249935139, 0
306, 0.58992326860873, 0.0011606887801785, 0
307, 0.27308527538714, 0.00022679512675925, 0
308, 0.71407613734479, 0.28136996610527, 0
309, -0.13694202585913, -0.2210132141884, 0
310, -0.096890703955796, -0.18063185682974, 0
311, 0.0043244009136921, -0.079769400600849, 0
312, -0.15696501850347, -0.24104908912276, 0
313, -0.035876688812083, -0.1197969186001, 0
314, -0.25768687852185, -0.34181916603513, 0
315, 0.15031386555617, 0.099544308010646, 0
316, 0.71235953703192, 0.11750730506896, 0
317, 0.81279370409063, -0.0014831554090568, 0
318, 0.49733329608332, 0.36509449535279, 0
319, 0.44135783964267, 0.36891064538663, 0
320, 0.2158288977875, 0.2543663653878, 0
321, 0.080199826143902, -0.0019828748051995, 0
322, 0.53413191791942, 0.41204788132861, 0
323, 0.68223425613422, 0.07822530263716, 0
324, 0.70058231577567, -0.030588797254628, 0
325, 0.24176162266388, 0.03026380721265, 0
326, 0.067040505471468, -0.060528381421786, 0
327, 0.75758172232103, -0.031655586509261, 0
328, 0.61993386469939, -0.030518805487946, 0
329, 0.0065169602311212, -0.12026273509776, 0
330, -0.05443765432403, -0.18099627086001, 0
331, -0.11499863282667, -0.24182293137755, 0
332, -0.17567230050575, -0.30223102487933, 0
333, 0.13817804958898, -0.031001032008573, 0
334, 0.47015024364612, 0.02939030790677, 0
335, 0.52712376625027, 0.029566411272428, 0
336, 0.41320976400092, 0.029509677583487, 0
337, 0.32748018465976, 0.029925007682657, 0
338, 0.21945540778702, -0.029933127296125, 0
339, 0.040944792782265, -0.00086630667834576, 0
340, 0.84172373876586, -0.0006693576775869, 0
341, 0.0019363432400459, -0.040037882192549, 0
342, 0.36145411853962, -0.030277461193068, 0
343, 0.27609336754742, -0.029901064238665, 0
344, 0.41841559305226, -0.03056876071049, 0
345, 0.53190507470555, -0.030521337084222, 0
346, 0.47514459914196, -0.030690968844219, 0
347, -0.23896899089157, -0.28052714497826, 0
348, -0.19870051333458, -0.24039524720268, 0
349, -0.13862520518907, -0.18036782969923, 0
350, -0.078223795695622, -0.11985719029105, 0
351, -0.03790261889039, -0.079709459037715, 0
352, -0.21608073687578, -0.3427485302642, 0
353, 0.81411145291127, -0.030874357716283, 0
354, 0.54953470795418, 0.35497845097201, 0
355, 0.77102835062032, 0.12064497243638, 0
356, 0.158856356856, 0.1910142678087, 0
357, 0.5908911525785, 0.4225155611686, 0
358, 0.38779432661351, 0.34770814085054, 0
359, 0.12886296347741, 0.10461352778003, 0
360, 0.6160931980605, 0.034792406373675, 0
361, 0.23948698615427, 0.19314266047886, 0
362, 0.27925053192539, 0.30952937392354, 0
363, 0.28018237811936, 0.23150213167683, 0
364, 0.7967576839735, 0.19104275961593, 0
365, 0.65353237418403, 0.40050934942295, 0
366, 0.32552262549183, 0.26863844387187, 0
367, 0.39801287915523, 0.32562578984821, 0
368, 0.41414034743791, 0.35821028246592, 0
369, 0.17978601152991, 0.12545869945762, 0
370, 0.3182007867507, 0.30699827501638, 0
371, 0.78672890240019, 0.29274283669759, 0
372, 0.7380794643153, 0.3647931719145, 0
373, 0.45371270131841, 0.34797774640496, 0
374, 0.66687659989787, -0.0054852836659315, 0
375, 0.13607981719264, 0.12170249738027, 0
376, 0.35886370819394, -0.00032681519913944, 0
377, 0.15348122580011, 0.052147185862958, 0
378, 0.11537526422803, 0.070218445545944, 0
379, 0.75267650827998, 0.31300253323562, 0
380, 0.37303207191328, 0.31446360832259, 0
381, 0.49709533469149, 0.38211318862341, 0
382, 0.33864194649844, 0.32234551966843, 0
383, 0.47843420371238, 0.35763511272204, 0
384, 0.46727986285016, 0.37709247870041, 0
385, 0.75545481945611, 0.042859134636485, 0
386, 0.71694089621457, 0.082832666245791, 0
387, 0.756547703699, -0.0037136402465161, 0
388, 0.69697721579693, 0.004597401048083, 0
389, 0.60446656542111, 0.37859951402351, 0
390, 0.70993972735035, 0.36131973883206, 0
391, 0.54466793834315, 0.38428112693432, 0
392, 0.7685523297943, 0.17699547818481, 0
393, 0.6263236655562, 0.0025152631512751, 0
394, 0.73000897580004, 0.13043466567045, 0
395, 0.74403934963863, 0.33684492144064, 0
396, 0.67766795371387, 0.033934008221823, 0
397, 0.27971755676446, 0.27043172823125, 0
398, 0.23795955841173, 0.23344977881723, 0
399, 0.24458795075526, 0.00028614088644574, 0
400, 0.76719764315936, 0.26501135095605, 0
401, 0.38745459975684, -0.0005129087584989, 0
402, 0.50136242727247, -0.00082813702119071, 0
403, 0.44455637486414, -0.00083120079557259, 0
404, 0.55912929387132, -4.4073117499981e-05, 0
405, 0.30176953532403, -1.5070886423506e-05, 0
406, 0.044168477142532, -0.040664993381513, 0
407, 0.16269419944562, -0.001847489914118, 0
408, -0.19739087439848, -0.28117967541506, 0
409, -0.076560414299849, -0.16035680868136, 0
410, -0.2376627134337, -0.32159212792461, 0
411, -0.056187280515869, -0.14011438549951, 0
412, 0.12721354194191, 0.026266098584635, 0
413, -0.17712145692701, -0.26112677088489, 0
414, 0.14385668228445, -0.002483056718606, 0
415, -0.015712591288807, -0.099815600243477, 0
416, 0.29950574178974, 0.28894912078115, 0
417, -0.11689456673376, -0.20090186197932, 0
418, 0.21645821474277, -6.4450453106369e-05, 0
419, 0.14922153355177, 0.07578038820003, 0
420, 0.78442410819301, -0.0027419423856853, 0
421, 0.024272129300801, -0.060144038030038, 0
422, 0.11598492708546, -0.0042412785037347, 0
423, 0.063388275075195, -0.021458999670109, 0
424, 0.64775984779174, -0.012449174144851, 0
425, 0.74143250952634, 0.10707793928299, 0
426, 0.33069491299271, 0.29375822115329, 0
427, 0.13389657813768, 0.049380893373425, 0
428, 0.77005815450527, 0.21201119002678, 0
429, 0.16199014339949, 0.15070505177156, 0
430, 0.51702323253241, 0.38259134421552, 0
431, 0.15186121064426, 0.12174621340987, 0
432, 0.19885228711394, 0.19222525675836, 0
433, 0.72837184973266, 0.30958073847224, 0
434, 0.74341786512211, 0.26190697327024, 0
435, 0.62271638894597, 0.37557241175987, 0
436, 0.64795195243142, 0.36976008655732, 0
437, 0.59984792752455, 0.39798309724283, 0
438, 0.71015802989492, 0.02615563487124, 0
439, 0.72905510059723, -0.002446351479731, 0
440, 0.52989228873638, -0.00053827142894934, 0
441, 0.41597805002863, -0.0006509505131602, 0
442, 0.47287317145063, -0.00080069245090561, 0
443, -0.21753240425655, -0.30140629679389, 0
444, 0.7037037595651, 0.052859586915383, 0
445, 0.73604732676766, 0.04841022288014, 0
446, 0.57245655131381, 0.3901058503155, 0
447, 0.75634320132405, 0.023171188819926, 0
448, 0.72404584209313, 0.10187002616742, 0
449, 0.73686152147189, 0.28575069984936, 0
450, 0.71884069724765, 0.33434800054599, 0
451, 0.69465035806463, 0.32802985372885, 0
452, 0.74649720343221, 0.23736299276408, 0
453, 0.72777775365524, 0.21617016428792, 0
454, 0.74472112072633, 0.2130958268603, 0
455, 0.73100267549402, 0.023731722284436, 0
456, 0.6780720273045, 0.3207755811969, 0
******* E L E M E N T S *************
*ELEMENT, type=T3D2, ELSET=Line1
1, 1, 12
2, 12, 13
3, 13, 14
4, 14, 15
5, 15, 16
6, 16, 17
7, 17, 18
8, 18, 19
9, 19, 20
10, 20, 21
11, 21, 22
12, 22, 23
13, 23, 24
14, 24, 25
15, 25, 26
16, 26, 27
17, 27, 28
18, 28, 2
*ELEMENT, type=T3D2, ELSET=Line2
19, 2, 29
20, 29, 30
21, 30, 31
22, 31, 32
23, 32, 33
24, 33, 34
25, 34, 35
26, 35, 36
27, 36, 37
28, 37, 38
29, 38, 39
30, 39, 40
31, 40, 41
32, 41, 42
33, 42, 43
34, 43, 44
35, 44, 45
36, 45, 46
37, 46, 47
38, 47, 48
39, 48, 49
40, 49, 50
41, 50, 51
42, 51, 52
43, 52, 53
44, 53, 54
45, 54, 55
46, 55, 3
*ELEMENT, type=T3D2, ELSET=Line3
47, 3, 56
48, 56, 57
49, 57, 58
50, 58, 4
*ELEMENT, type=T3D2, ELSET=Line4
51, 4, 59
52, 59, 60
53, 60, 61
54, 61, 5
*ELEMENT, type=T3D2, ELSET=Line5
55, 5, 62
56, 62, 63
57, 63, 64
58, 64, 65
59, 65, 66
60, 66, 67
61, 67, 68
62, 68, 69
63, 69, 70
64, 70, 71
65, 71, 72
66, 72, 73
67, 73, 74
68, 74, 75
69, 75, 76
70, 76, 77
71, 77, 78
72, 78, 79
73, 79, 80
74, 80, 6
*ELEMENT, type=T3D2, ELSET=Line6
75, 6, 81
76, 81, 82
77, 82, 83
78, 83, 84
79, 84, 85
80, 85, 86
81, 86, 87
82, 87, 88
83, 88, 89
84, 89, 90
85, 90, 91
86, 91, 92
87, 92, 93
88, 93, 94
89, 94, 95
90, 95, 96
91, 96, 97
92, 97, 98
93, 98, 99
94, 99, 100
95, 100, 101
96, 101, 102
97, 102, 103
98, 103, 7
*ELEMENT, type=T3D2, ELSET=Line7
99, 7, 104
100, 104, 105
101, 105, 106
102, 106, 107
103, 107, 108
104, 108, 109
105, 109, 110
106, 110, 111
107, 111, 112
108, 112, 113
109, 113, 114
110, 114, 115
111, 115, 116
112, 116, 117
113, 117, 118
114, 118, 119
115, 119, 120
116, 120, 121
117, 121, 122
118, 122, 8
*ELEMENT, type=T3D2, ELSET=Line8
119, 8, 123
120, 123, 124
121, 124, 125
122, 125, 1
*ELEMENT, type=T3D2, ELSET=Line9
123, 9, 126
124, 126, 127
125, 127, 128
126, 128, 129
127, 129, 130
128, 130, 131
129, 131, 132
130, 132, 133
131, 133, 134
132, 134, 135
133, 135, 136
134, 136, 137
135, 137, 138
136, 138, 139
137, 139, 140
138, 140, 10
*ELEMENT, type=T3D2, ELSET=Line10
139, 10, 141
140, 141, 142
141, 142, 143
142, 143, 144
143, 144, 145
144, 145, 146
145, 146, 147
146, 147, 148
147, 148, 149
148, 149, 150
149, 150, 151
150, 151, 152
151, 152, 153
152, 153, 11
*ELEMENT, type=T3D2, ELSET=Line11
153, 11, 154
154, 154, 155
155, 155, 156
156, 156, 157
157, 157, 158
158, 158, 159
159, 159, 160
160, 160, 161
161, 161, 162
162, 162, 163
163, 163, 164
164, 164, 165
165, 165, 166
166, 166, 167
167, 167, 168
168, 168, 169
169, 169, 170
170, 170, 9
*ELEMENT, type=CPS4, ELSET=Surface1
171, 446, 218, 322, 391
172, 180, 397, 293, 363
173, 295, 356, 208, 429
174, 175, 301, 296, 392
175, 301, 179, 394, 296
176, 298, 361, 183, 398
177, 450, 395, 372, 390
178, 361, 298, 432, 258
179, 447, 387, 420, 285
180, 285, 420, 317, 217
181, 407, 241, 216, 299
182, 305, 337, 247, 405
183, 444, 438, 455, 445
184, 299, 216, 338, 418
185, 409, 330, 226, 411
186, 418, 338, 188, 399
187, 393, 360, 246, 306
188, 441, 336, 248, 401
189, 440, 335, 222, 402
190, 442, 334, 190, 403
191, 337, 305, 376, 220
192, 306, 246, 223, 404
193, 404, 223, 335, 440
194, 399, 188, 343, 307
195, 403, 190, 336, 441
196, 402, 222, 334, 442
197, 421, 242, 326, 406
198, 263, 430, 381, 318
199, 413, 408, 332, 245
200, 332, 408, 443, 224
201, 310, 244, 330, 409
202, 417, 227, 244, 310
203, 197, 311, 421, 341
204, 309, 331, 227, 417
205, 196, 313, 415, 351
206, 410, 352, 224, 443
207, 352, 410, 314, 232
208, 388, 396, 286, 374
209, 144, 316, 394, 179
210, 434, 452, 292, 400
211, 169, 168, 198, 369
212, 235, 356, 295, 432
213, 316, 448, 425, 394
214, 407, 287, 412, 414
215, 437, 357, 218, 446
216, 369, 198, 295, 429
217, 175, 146, 145, 301
218, 392, 428, 454, 175
219, 217, 317, 340, 234
220, 289, 400, 213, 371
221, 212, 94, 95, 320
222, 317, 420, 181, 353
223, 370, 184, 362, 416
224, 398, 320, 211, 298
225, 208, 356, 98, 99
226, 314, 230, 255, 232
227, 366, 426, 370, 416
228, 416, 362, 240, 397
229, 432, 298, 211, 235
230, 3, 56, 233, 55
231, 81, 218, 357, 6
232, 307, 221, 325, 399
233, 123, 256, 122, 8
234, 10, 140, 360, 254
235, 445, 385, 5, 283
236, 125, 1, 12, 255
237, 414, 333, 241, 407
238, 291, 297, 456, 451
239, 340, 238, 239, 234
240, 61, 5, 285, 217
241, 393, 328, 236, 424
242, 415, 313, 243, 329
243, 309, 312, 225, 331
244, 9, 182, 260, 126
245, 388, 324, 237, 439
246, 434, 172, 294, 452
247, 415, 329, 228, 311
248, 324, 388, 374, 202
249, 256, 123, 124, 230
250, 255, 230, 124, 125
251, 445, 455, 447, 385
252, 246, 360, 140, 139
253, 355, 425, 283, 207
254, 392, 364, 269, 428
255, 393, 306, 187, 328
256, 202, 374, 424, 236
257, 452, 454, 428, 292
258, 407, 299, 182, 287
259, 421, 311, 228, 242
260, 406, 326, 191, 423
261, 233, 56, 57, 238
262, 324, 202, 48, 49
263, 411, 226, 243, 313
264, 413, 245, 225, 312
265, 217, 234, 60, 61
266, 239, 59, 60, 234
267, 212, 293, 397, 240
268, 327, 387, 439, 237
269, 242, 27, 28, 326
270, 237, 324, 49, 50
271, 422, 273, 29, 333
272, 260, 325, 127, 126
273, 79, 357, 437, 215
274, 412, 422, 333, 414
275, 202, 236, 47, 48
276, 372, 209, 265, 390
277, 327, 237, 50, 51
278, 365, 78, 79, 215
279, 213, 264, 68, 69
280, 209, 75, 76, 265
281, 283, 5, 62, 207
282, 214, 259, 64, 65
283, 207, 62, 63, 355
284, 269, 364, 66, 67
285, 259, 355, 63, 64
286, 271, 371, 70, 71
287, 264, 269, 67, 68
288, 270, 77, 78, 365
289, 265, 76, 77, 270
290, 206, 271, 71, 72
291, 272, 73, 74, 372
292, 405, 247, 221, 307
293, 401, 248, 220, 376
294, 355, 259, 392, 296
295, 235, 211, 96, 97
296, 59, 239, 58, 4
297, 238, 57, 58, 239
298, 240, 93, 94, 212
299, 320, 398, 293, 212
300, 211, 320, 95, 96
301, 79, 80, 6, 357
302, 181, 327, 51, 52
303, 66, 364, 214, 65
304, 391, 322, 210, 430
305, 356, 235, 97, 98
306, 430, 210, 257, 381
307, 338, 216, 31, 32
308, 241, 30, 31, 216
309, 2, 191, 326, 28
310, 236, 328, 46, 47
311, 242, 228, 26, 27
312, 226, 23, 24, 243
313, 329, 243, 24, 25
314, 227, 20, 21, 244
315, 330, 244, 21, 22
316, 331, 225, 18, 19
317, 225, 245, 17, 18
318, 332, 224, 15, 16
319, 228, 329, 25, 26
320, 226, 330, 22, 23
321, 227, 331, 19, 20
322, 245, 332, 16, 17
323, 349, 194, 309, 417
324, 75, 209, 372, 74
325, 362, 92, 93, 240
326, 241, 333, 29, 30
327, 317, 353, 262, 340
328, 353, 181, 52, 53
329, 261, 178, 7, 104
330, 336, 190, 134, 133
331, 334, 222, 136, 135
332, 335, 223, 138, 137
333, 246, 139, 138, 223
334, 247, 129, 128, 221
335, 337, 220, 131, 130
336, 248, 132, 131, 220
337, 325, 221, 128, 127
338, 190, 334, 135, 134
339, 222, 335, 137, 136
340, 248, 336, 133, 132
341, 344, 441, 401, 185
342, 346, 442, 403, 250
343, 247, 337, 130, 129
344, 345, 440, 402, 186
345, 339, 261, 104, 105
346, 307, 343, 251, 405
347, 177, 323, 444, 386
348, 29, 273, 191, 2
349, 322, 82, 83, 210
350, 339, 105, 106, 219
351, 341, 219, 106, 107
352, 5, 385, 447, 285
353, 364, 392, 259, 214
354, 423, 339, 219, 406
355, 328, 187, 45, 46
356, 342, 189, 36, 37
357, 346, 41, 42, 186
358, 345, 186, 42, 43
359, 344, 185, 38, 39
360, 345, 43, 44, 249
361, 343, 188, 33, 34
362, 346, 250, 40, 41
363, 343, 34, 35, 251
364, 338, 32, 33, 188
365, 342, 37, 38, 185
366, 344, 39, 40, 250
367, 405, 251, 189, 305
368, 376, 305, 189, 342
369, 441, 344, 250, 403
370, 376, 342, 185, 401
371, 442, 346, 186, 402
372, 306, 404, 249, 187
373, 440, 345, 249, 404
374, 347, 119, 120, 192
375, 347, 193, 118, 119
376, 348, 117, 118, 193
377, 348, 252, 116, 117
378, 349, 114, 115, 194
379, 349, 253, 113, 114
380, 350, 111, 112, 195
381, 350, 196, 110, 111
382, 351, 109, 110, 196
383, 351, 197, 108, 109
384, 341, 107, 108, 197
385, 443, 408, 193, 347
386, 413, 348, 193, 408
387, 411, 350, 195, 409
388, 312, 309, 194, 252
389, 417, 310, 253, 349
390, 45, 187, 249, 44
391, 36, 189, 251, 35
392, 288, 321, 273, 422
393, 171, 308, 449, 433
394, 144, 143, 177, 316
395, 224, 352, 14, 15
396, 142, 141, 173, 323
397, 372, 395, 206, 272
398, 451, 171, 433, 450
399, 116, 252, 194, 115
400, 195, 253, 310, 409
401, 112, 113, 253, 195
402, 184, 91, 92, 362
403, 361, 166, 165, 183
404, 70, 371, 213, 69
405, 443, 347, 192, 410
406, 297, 174, 152, 151
407, 301, 145, 144, 179
408, 260, 418, 399, 325
409, 363, 164, 163, 180
410, 308, 149, 148, 172
411, 302, 176, 11, 153
412, 308, 171, 150, 149
413, 323, 177, 143, 142
414, 429, 208, 267, 290
415, 449, 308, 172, 434
416, 167, 166, 361, 258
417, 382, 266, 184, 370
418, 406, 219, 341, 421
419, 381, 257, 282, 384
420, 419, 377, 9, 276
421, 354, 263, 155, 154
422, 366, 268, 300, 426
423, 255, 12, 13, 232
424, 352, 232, 13, 14
425, 72, 73, 272, 206
426, 181, 420, 387, 327
427, 154, 11, 176, 354
428, 256, 231, 121, 122
429, 444, 323, 173, 396
430, 168, 167, 258, 198
431, 267, 208, 99, 100
432, 266, 90, 91, 184
433, 9, 377, 287, 182
434, 210, 83, 84, 257
435, 400, 289, 449, 434
436, 446, 391, 354, 176
437, 418, 260, 182, 299
438, 121, 231, 192, 120
439, 311, 197, 351, 415
440, 313, 196, 350, 411
441, 312, 252, 348, 413
442, 164, 363, 183, 165
443, 192, 231, 314, 410
444, 367, 304, 368, 358
445, 400, 292, 264, 213
446, 238, 340, 262, 233
447, 379, 395, 450, 433
448, 432, 295, 198, 258
449, 353, 53, 54, 262
450, 233, 262, 54, 55
451, 162, 366, 180, 163
452, 371, 271, 379, 289
453, 366, 162, 161, 268
454, 303, 280, 266, 382
455, 388, 438, 444, 396
456, 280, 89, 90, 266
457, 156, 155, 263, 199
458, 384, 282, 229, 319
459, 359, 375, 267, 277
460, 396, 173, 254, 286
461, 218, 81, 82, 322
462, 316, 177, 386, 448
463, 369, 200, 170, 169
464, 257, 84, 85, 282
465, 215, 435, 436, 365
466, 230, 314, 231, 256
467, 277, 267, 100, 101
468, 160, 203, 268, 161
469, 141, 10, 254, 173
470, 263, 318, 383, 199
471, 147, 294, 172, 148
472, 273, 321, 423, 191
473, 268, 203, 380, 300
474, 358, 204, 280, 303
475, 428, 269, 264, 292
476, 390, 265, 270, 291
477, 153, 152, 174, 302
478, 204, 88, 89, 280
479, 199, 281, 157, 156
480, 391, 430, 263, 354
481, 150, 456, 297, 151
482, 291, 270, 365, 436
483, 319, 229, 275, 368
484, 416, 397, 180, 366
485, 203, 160, 159, 279
486, 282, 85, 86, 229
487, 199, 383, 373, 281
488, 422, 412, 284, 288
489, 203, 279, 367, 380
490, 201, 277, 101, 102
491, 178, 278, 103, 7
492, 378, 359, 277, 201
493, 288, 284, 278, 178
494, 374, 286, 393, 424
495, 275, 87, 88, 204
496, 368, 275, 204, 358
497, 286, 254, 360, 393
498, 281, 205, 158, 157
499, 278, 201, 102, 103
500, 176, 389, 437, 446
501, 279, 159, 158, 274
502, 281, 373, 304, 205
503, 229, 86, 87, 275
504, 412, 427, 378, 284
505, 200, 276, 9, 170
506, 279, 274, 304, 367
507, 387, 447, 455, 439
508, 158, 205, 304, 274
509, 284, 378, 201, 278
510, 146, 453, 294, 147
511, 439, 455, 438, 388
512, 452, 294, 453, 454
513, 291, 451, 450, 390
514, 315, 359, 378, 419
515, 419, 276, 200, 315
516, 304, 373, 319, 368
517, 369, 431, 315, 200
518, 412, 287, 377, 427
519, 380, 367, 358, 303
520, 395, 379, 271, 206
521, 377, 419, 378, 427
522, 426, 300, 382, 370
523, 267, 375, 431, 290
524, 150, 171, 451, 456
525, 384, 319, 373, 383
526, 303, 382, 300, 380
527, 381, 384, 383, 318
528, 369, 429, 290, 431
529, 359, 315, 431, 375
530, 146, 175, 454, 453
531, 289, 379, 433, 449
532, 291, 436, 174, 297
533, 436, 435, 302, 174
534, 437, 389, 435, 215
535, 178, 261, 321, 288
536, 423, 321, 261, 339
537, 444, 445, 283, 386
538, 425, 448, 386, 283
539, 183, 363, 293, 398
540, 176, 302, 435, 389
541, 296, 394, 425, 355
*ELSET,ELSET=inlet
119, 120, 121, 122, 
*ELSET,ELSET=outlet
47, 48, 49, 50, 
*ELSET,ELSET=walls
1, 2, 3, 4, 5, 6, 7, 8, 9, 10, 
11, 12, 13, 14, 15, 16, 17, 18, 19, 20, 
21, 22, 23, 24, 25, 26, 27, 28, 29, 30, 
31, 32, 33, 34, 35, 36, 37, 38, 39, 40, 
41, 42, 43, 44, 45, 46, 51, 52, 53, 54, 
55, 56, 57, 58, 59, 60, 61, 62, 63, 64, 
65, 66, 67, 68, 69, 70, 71, 72, 73, 74, 
75, 76, 77, 78, 79, 80, 81, 82, 83, 84, 
85, 86, 87, 88, 89, 90, 91, 92, 93, 94, 
95, 96, 97, 98, 99, 100, 101, 102, 103, 104, 
105, 106, 107, 108, 109, 110, 111, 112, 113, 114, 
115, 116, 117, 118, 123, 124, 125, 126, 127, 128, 
129, 130, 131, 132, 133, 134, 135, 136, 137, 138, 
139, 140, 141, 142, 143, 144, 145, 146, 147, 148, 
149, 150, 151, 152, 153, 154, 155, 156, 157, 158, 
159, 160, 161, 162, 163, 164, 165, 166, 167, 168, 
169, 170, 
*ELSET,ELSET=domain
171, 172, 173, 174, 175, 176, 177, 178, 179, 180, 
181, 182, 183, 184, 185, 186, 187, 188, 189, 190, 
191, 192, 193, 194, 195, 196, 197, 198, 199, 200, 
201, 202, 203, 204, 205, 206, 207, 208, 209, 210, 
211, 212, 213, 214, 215, 216, 217, 218, 219, 220, 
221, 222, 223, 224, 225, 226, 227, 228, 229, 230, 
231, 232, 233, 234, 235, 236, 237, 238, 239, 240, 
241, 242, 243, 244, 245, 246, 247, 248, 249, 250, 
251, 252, 253, 254, 255, 256, 257, 258, 259, 260, 
261, 262, 263, 264, 265, 266, 267, 268, 269, 270, 
271, 272, 273, 274, 275, 276, 277, 278, 279, 280, 
281, 282, 283, 284, 285, 286, 287, 288, 289, 290, 
291, 292, 293, 294, 295, 296, 297, 298, 299, 300, 
301, 302, 303, 304, 305, 306, 307, 308, 309, 310, 
311, 312, 313, 314, 315, 316, 317, 318, 319, 320, 
321, 322, 323, 324, 325, 326, 327, 328, 329, 330, 
331, 332, 333, 334, 335, 336, 337, 338, 339, 340, 
341, 342, 343, 344, 345, 346, 347, 348, 349, 350, 
351, 352, 353, 354, 355, 356, 357, 358, 359, 360, 
361, 362, 363, 364, 365, 366, 367, 368, 369, 370, 
371, 372, 373, 374, 375, 376, 377, 378, 379, 380, 
381, 382, 383, 384, 385, 386, 387, 388, 389, 390, 
391, 392, 393, 394, 395, 396, 397, 398, 399, 400, 
401, 402, 403, 404, 405, 406, 407, 408, 409, 410, 
411, 412, 413, 414, 415, 416, 417, 418, 419, 420, 
421, 422, 423, 424, 425, 426, 427, 428, 429, 430, 
431, 432, 433, 434, 435, 436, 437, 438, 439, 440, 
441, 442, 443, 444, 445, 446, 447, 448, 449, 450, 
451, 452, 453, 454, 455, 456, 457, 458, 459, 460, 
461, 462, 463, 464, 465, 466, 467, 468, 469, 470, 
471, 472, 473, 474, 475, 476, 477, 478, 479, 480, 
481, 482, 483, 484, 485, 486, 487, 488, 489, 490, 
491, 492, 493, 494, 495, 496, 497, 498, 499, 500, 
501, 502, 503, 504, 505, 506, 507, 508, 509, 510, 
511, 512, 513, 514, 515, 516, 517, 518, 519, 520, 
521, 522, 523, 524, 525, 526, 527, 528, 529, 530, 
531, 532, 533, 534, 535, 536, 537, 538, 539, 540, 
541, 
*NSET,NSET=inlet
1, 8, 123, 124, 125, 
*NSET,NSET=outlet
3, 4, 56, 57, 58, 
*NSET,NSET=walls
1, 2, 3, 4, 5, 6, 7, 8, 9, 10, 
11, 12, 13, 14, 15, 16, 17, 18, 19, 20, 
21, 22, 23, 24, 25, 26, 27, 28, 29, 30, 
31, 32, 33, 34, 35, 36, 37, 38, 39, 40, 
41, 42, 43, 44, 45, 46, 47, 48, 49, 50, 
51, 52, 53, 54, 55, 59, 60, 61, 62, 63, 
64, 65, 66, 67, 68, 69, 70, 71, 72, 73, 
74, 75, 76, 77, 78, 79, 80, 81, 82, 83, 
84, 85, 86, 87, 88, 89, 90, 91, 92, 93, 
94, 95, 96, 97, 98, 99, 100, 101, 102, 103, 
104, 105, 106, 107, 108, 109, 110, 111, 112, 113, 
114, 115, 116, 117, 118, 119, 120, 121, 122, 126, 
127, 128, 129, 130, 131, 132, 133, 134, 135, 136, 
137, 138, 139, 140, 141, 142, 143, 144, 145, 146, 
147, 148, 149, 150, 151, 152, 153, 154, 155, 156, 
157, 158, 159, 160, 161, 162, 163, 164, 165, 166, 
167, 168, 169, 170, 
*NSET,NSET=domain
1, 2, 3, 4, 5, 6, 7, 8, 9, 10, 
11, 12, 13, 14, 15, 16, 17, 18, 19, 20, 
21, 22, 23, 24, 25, 26, 27, 28, 29, 30, 
31, 32, 33, 34, 35, 36, 37, 38, 39, 40, 
41, 42, 43, 44, 45, 46, 47, 48, 49, 50, 
51, 52, 53, 54, 55, 56, 57, 58, 59, 60, 
61, 62, 63, 64, 65, 66, 67, 68, 69, 70, 
71, 72, 73, 74, 75, 76, 77, 78, 79, 80, 
81, 82, 83, 84, 85, 86, 87, 88, 89, 90, 
91, 92, 93, 94, 95, 96, 97, 98, 99, 100, 
101, 102, 103, 104, 105, 106, 107, 108, 109, 110, 
111, 112, 113, 114, 115, 116, 117, 118, 119, 120, 
121, 122, 123, 124, 125, 126, 127, 128, 129, 130, 
131, 132, 133, 134, 135, 136, 137, 138, 139, 140, 
141, 142, 143, 144, 145, 146, 147, 148, 149, 150, 
151, 152, 153, 154, 155, 156, 157, 158, 159, 160, 
161, 162, 163, 164, 165, 166, 167, 168, 169, 170, 
171, 172, 173, 174, 175, 176, 177, 178, 179, 180, 
181, 182, 183, 184, 185, 186, 187, 188, 189, 190, 
191, 192, 193, 194, 195, 196, 197, 198, 199, 200, 
201, 202, 203, 204, 205, 206, 207, 208, 209, 210, 
211, 212, 213, 214, 215, 216, 217, 218, 219, 220, 
221, 222, 223, 224, 225, 226, 227, 228, 229, 230, 
231, 232, 233, 234, 235, 236, 237, 238, 239, 240, 
241, 242, 243, 244, 245, 246, 247, 248, 249, 250, 
251, 252, 253, 254, 255, 256, 257, 258, 259, 260, 
261, 262, 263, 264, 265, 266, 267, 268, 269, 270, 
271, 272, 273, 274, 275, 276, 277, 278, 279, 280, 
281, 282, 283, 284, 285, 286, 287, 288, 289, 290, 
291, 292, 293, 294, 295, 296, 297, 298, 299, 300, 
301, 302, 303, 304, 305, 306, 307, 308, 309, 310, 
311, 312, 313, 314, 315, 316, 317, 318, 319, 320, 
321, 322, 323, 324, 325, 326, 327, 328, 329, 330, 
331, 332, 333, 334, 335, 336, 337, 338, 339, 340, 
341, 342, 343, 344, 345, 346, 347, 348, 349, 350, 
351, 352, 353, 354, 355, 356, 357, 358, 359, 360, 
361, 362, 363, 364, 365, 366, 367, 368, 369, 370, 
371, 372, 373, 374, 375, 376, 377, 378, 379, 380, 
381, 382, 383, 384, 385, 386, 387, 388, 389, 390, 
391, 392, 393, 394, 395, 396, 397, 398, 399, 400, 
401, 402, 403, 404, 405, 406, 407, 408, 409, 410, 
411, 412, 413, 414, 415, 416, 417, 418, 419, 420, 
421, 422, 423, 424, 425, 426, 427, 428, 429, 430, 
431, 432, 433, 434, 435, 436, 437, 438, 439, 440, 
441, 442, 443, 444, 445, 446, 447, 448, 449, 450, 
451, 452, 453, 454, 455, 456, 
