*Heading
 /Users/jfarrell/Desktop/FermiHarmonics/demo/mesh/straight_channel.inp
*NODE
1, -0.5, -0.25, 0
2, 0.5, -0.25, 0
3, 0.5, 0.25, 0
4, -0.5, 0.25, 0
5, -0.46875, -0.25, 0
6, -0.4375, -0.25, 0
7, -0.40625, -0.25, 0
8, -0.375, -0.25, 0
9, -0.34375, -0.25, 0
10, -0.3125, -0.25, 0
11, -0.28125, -0.25, 0
12, -0.25, -0.25, 0
13, -0.21875, -0.25, 0
14, -0.1875, -0.25, 0
15, -0.15625, -0.25, 0
16, -0.125, -0.25, 0
17, -0.09375, -0.25, 0
18, -0.0625, -0.25, 0
19, -0.03125, -0.25, 0
20, 0, -0.25, 0
21, 0.03125, -0.25, 0
22, 0.0625, -0.25, 0
23, 0.09375, -0.25, 0
24, 0.125, -0.25, 0
25, 0.15625, -0.25, 0
26, 0.1875, -0.25, 0
27, 0.21875, -0.25, 0
28, 0.25, -0.25, 0
29, 0.28125, -0.25, 0
30, 0.3125, -0.25, 0
31, 0.34375, -0.25, 0
32, 0.375, -0.25, 0
33, 0.40625, -0.25, 0
34, 0.4375, -0.25, 0
35, 0.46875, -0.25, 0
36, 0.5, -0.1875, 0
37, 0.5, -0.125, 0
38, 0.5, -0.0625, 0
39, 0.5, 0, 0
40, 0.5, 0.0625, 0
41, 0.5, 0.125, 0
42, 0.5, 0.1875, 0
43, 0.46875, 0.25, 0
44, 0.4375, 0.25, 0
45, 0.40625, 0.25, 0
46, 0.375, 0.25, 0
47, 0.34375, 0.25, 0
48, 0.3125, 0.25, 0
49, 0.28125, 0.25, 0
50, 0.25, 0.25, 0
51, 0.21875, 0.25, 0
52, 0.1875, 0.25, 0
53, 0.15625, 0.25, 0
54, 0.125, 0.25, 0
55, 0.09375, 0.25, 0
56, 0.0625, 0.25, 0
57, 0.03125, 0.25, 0
58, 0, 0.25, 0
59, -0.03125, 0.25, 0
60, -0.0625, 0.25, 0
61, -0.09375, 0.25, 0
62, -0.125, 0.25, 0
63, -0.15625, 0.25, 0
64, -0.1875, 0.25, 0
65, -0.21875, 0.25, 0
66, -0.25, 0.25, 0
67, -0.28125, 0.25, 0
68, -0.3125, 0.25, 0
69, -0.34375, 0.25, 0
70, -0.375, 0.25, 0
71, -0.40625, 0.25, 0
72, -0.4375, 0.25, 0
73, -0.46875, 0.25, 0
74, -0.5, 0.1875, 0
75, -0.5, 0.125, 0
76, -0.5, 0.0625, 0
77, -0.5, 0, 0
78, -0.5, -0.0625, 0
79, -0.5, -0.125, 0
80, -0.5, -0.1875, 0
81, -0.46875, -0.1875, 0
82, -0.46875, -0.125, 0
83, -0.46875, -0.0625, 0
84, -0.46875, 0, 0
85, -0.46875, 0.0625, 0
86, -0.46875, 0.125, 0
87, -0.46875, 0.1875, 0
88, -0.4375, -0.1875, 0
89, -0.4375, -0.125, 0
90, -0.4375, -0.0625, 0
91, -0.4375, 0, 0
92, -0.4375, 0.0625, 0
93, -0.4375, 0.125, 0
94, -0.4375, 0.1875, 0
95, -0.40625, -0.1875, 0
96, -0.40625, -0.125, 0
97, -0.40625, -0.0625, 0
98, -0.40625, 0, 0
99, -0.40625, 0.0625, 0
100, -0.40625, 0.125, 0
101, -0.40625, 0.1875, 0
102, -0.375, -0.1875, 0
103, -0.375, -0.125, 0
104, -0.375, -0.0625, 0
105, -0.375, 0, 0
106, -0.375, 0.0625, 0
107, -0.375, 0.125, 0
108, -0.375, 0.1875, 0
109, -0.34375, -0.1875, 0
110, -0.34375, -0.125, 0
111, -0.34375, -0.0625, 0
112, -0.34375, 0, 0
113, -0.34375, 0.0625, 0
114, -0.34375, 0.125, 0
115, -0.34375, 0.1875, 0
116, -0.3125, -0.1875, 0
117, -0.3125, -0.125, 0
118, -0.3125, -0.0625, 0
119, -0.3125, 0, 0
120, -0.3125, 0.0625, 0
121, -0.3125, 0.125, 0
122, -0.3125, 0.1875, 0
123, -0.28125, -0.1875, 0
124, -0.28125, -0.125, 0
125, -0.28125, -0.0625, 0
126, -0.28125, 0, 0
127, -0.28125, 0.0625, 0
128, -0.28125, 0.125, 0
129, -0.28125, 0.1875, 0
130, -0.25, -0.1875, 0
131, -0.25, -0.125, 0
132, -0.25, -0.0625, 0
133, -0.25, 0, 0
134, -0.25, 0.0625, 0
135, -0.25, 0.125, 0
136, -0.25, 0.1875, 0
137, -0.21875, -0.1875, 0
138, -0.21875, -0.125, 0
139, -0.21875, -0.0625, 0
140, -0.21875, 0, 0
141, -0.21875, 0.0625, 0
142, -0.21875, 0.125, 0
143, -0.21875, 0.1875, 0
144, -0.1875, -0.1875, 0
145, -0.1875, -0.125, 0
146, -0.1875, -0.0625, 0
147, -0.1875, 0, 0
148, -0.1875, 0.0625, 0
149, -0.1875, 0.125, 0
150, -0.1875, 0.1875, 0
151, -0.15625, -0.1875, 0
152, -0.15625, -0.125, 0
153, -0.15625, -0.0625, 0
154, -0.15625, 0, 0
155, -0.15625, 0.0625, 0
156, -0.15625, 0.125, 0
157, -0.15625, 0.1875, 0
158, -0.125, -0.1875, 0
159, -0.125, -0.125, 0
160, -0.125, -0.0625, 0
161, -0.125, 0, 0
162, -0.125, 0.0625, 0
163, -0.125, 0.125, 0
164, -0.125, 0.1875, 0
165, -0.09375, -0.1875, 0
166, -0.09375, -0.125, 0
167, -0.09375, -0.0625, 0
168, -0.09375, 0, 0
169, -0.09375, 0.0625, 0
170, -0.09375, 0.125, 0
171, -0.09375, 0.1875, 0
172, -0.0625, -0.1875, 0
173, -0.0625, -0.125, 0
174, -0.0625, -0.0625, 0
175, -0.0625, 0, 0
176, -0.0625, 0.0625, 0
177, -0.0625, 0.125, 0
178, -0.0625, 0.1875, 0
179, -0.03125, -0.1875, 0
180, -0.03125, -0.125, 0
181, -0.03125, -0.0625, 0
182, -0.03125, 0, 0
183, -0.03125, 0.0625, 0
184, -0.03125, 0.125, 0
185, -0.03125, 0.1875, 0
186, 0, -0.1875, 0
187, 0, -0.125, 0
188, 0, -0.0625, 0
189, 0, 0, 0
190, 0, 0.0625, 0
191, 0, 0.125, 0
192, 0, 0.1875, 0
193, 0.03125, -0.1875, 0
194, 0.03125, -0.125, 0
195, 0.03125, -0.0625, 0
196, 0.03125, 0, 0
197, 0.03125, 0.0625, 0
198, 0.03125, 0.125, 0
199, 0.03125, 0.1875, 0
200, 0.0625, -0.1875, 0
201, 0.0625, -0.125, 0
202, 0.0625, -0.0625, 0
203, 0.0625, 0, 0
204, 0.0625, 0.0625, 0
205, 0.0625, 0.125, 0
206, 0.0625, 0.1875, 0
207, 0.09375, -0.1875, 0
208, 0.09375, -0.125, 0
209, 0.09375, -0.0625, 0
210, 0.09375, 0, 0
211, 0.09375, 0.0625, 0
212, 0.09375, 0.125, 0
213, 0.09375, 0.1875, 0
214, 0.125, -0.1875, 0
215, 0.125, -0.125, 0
216, 0.125, -0.0625, 0
217, 0.125, 0, 0
218, 0.125, 0.0625, 0
219, 0.125, 0.125, 0
220, 0.125, 0.1875, 0
221, 0.15625, -0.1875, 0
222, 0.15625, -0.125, 0
223, 0.15625, -0.0625, 0
224, 0.15625, 0, 0
225, 0.15625, 0.0625, 0
226, 0.15625, 0.125, 0
227, 0.15625, 0.1875, 0
228, 0.1875, -0.1875, 0
229, 0.1875, -0.125, 0
230, 0.1875, -0.0625, 0
231, 0.1875, 0, 0
232, 0.1875, 0.0625, 0
233, 0.1875, 0.125, 0
234, 0.1875, 0.1875, 0
235, 0.21875, -0.1875, 0
236, 0.21875, -0.125, 0
237, 0.21875, -0.0625, 0
238, 0.21875, 0, 0
239, 0.21875, 0.0625, 0
240, 0.21875, 0.125, 0
241, 0.21875, 0.1875, 0
242, 0.25, -0.1875, 0
243, 0.25, -0.125, 0
244, 0.25, -0.0625, 0
245, 0.25, 0, 0
246, 0.25, 0.0625, 0
247, 0.25, 0.125, 0
248, 0.25, 0.1875, 0
249, 0.28125, -0.1875, 0
250, 0.28125, -0.125, 0
251, 0.28125, -0.0625, 0
252, 0.28125, 0, 0
253, 0.28125, 0.0625, 0
254, 0.28125, 0.125, 0
255, 0.28125, 0.1875, 0
256, 0.3125, -0.1875, 0
257, 0.3125, -0.125, 0
258, 0.3125, -0.0625, 0
259, 0.3125, 0, 0
260, 0.3125, 0.0625, 0
261, 0.3125, 0.125, 0
262, 0.3125, 0.1875, 0
263, 0.34375, -0.1875, 0
264, 0.34375, -0.125, 0
265, 0.34375, -0.0625, 0
266, 0.34375, 0, 0
267, 0.34375, 0.0625, 0
268, 0.34375, 0.125, 0
269, 0.34375, 0.1875, 0
270, 0.375, -0.1875, 0
271, 0.375, -0.125, 0
272, 0.375, -0.0625, 0
273, 0.375, 0, 0
274, 0.375, 0.0625, 0
275, 0.375, 0.125, 0
276, 0.375, 0.1875, 0
277, 0.40625, -0.1875, 0
278, 0.40625, -0.125, 0
279, 0.40625, -0.0625, 0
280, 0.40625, 0, 0
281, 0.40625, 0.0625, 0
282, 0.40625, 0.125, 0
283, 0.40625, 0.1875, 0
284, 0.4375, -0.1875, 0
285, 0.4375, -0.125, 0
286, 0.4375, -0.0625, 0
287, 0.4375, 0, 0
288, 0.4375, 0.0625, 0
289, 0.4375, 0.125, 0
290, 0.4375, 0.1875, 0
291, 0.46875, -0.1875, 0
292, 0.46875, -0.125, 0
293, 0.46875, -0.0625, 0
294, 0.46875, 0, 0
295, 0.46875, 0.0625, 0
296, 0.46875, 0.125, 0
297, 0.46875, 0.1875, 0
******* E L E M E N T S *************
*ELEMENT, type=CPS4, ELSET=Surface1
1, 1, 5, 81, 80
2, 80, 81, 82, 79
3, 79, 82, 83, 78
4, 78, 83, 84, 77
5, 77, 84, 85, 76
6, 76, 85, 86, 75
7, 75, 86, 87, 74
8, 74, 87, 73, 4
9, 5, 6, 88, 81
10, 81, 88, 89, 82
11, 82, 89, 90, 83
12, 83, 90, 91, 84
13, 84, 91, 92, 85
14, 85, 92, 93, 86
15, 86, 93, 94, 87
16, 87, 94, 72, 73
17, 6, 7, 95, 88
18, 88, 95, 96, 89
19, 89, 96, 97, 90
20, 90, 97, 98, 91
21, 91, 98, 99, 92
22, 92, 99, 100, 93
23, 93, 100, 101, 94
24, 94, 101, 71, 72
25, 7, 8, 102, 95
26, 95, 102, 103, 96
27, 96, 103, 104, 97
28, 97, 104, 105, 98
29, 98, 105, 106, 99
30, 99, 106, 107, 100
31, 100, 107, 108, 101
32, 101, 108, 70, 71
33, 8, 9, 109, 102
34, 102, 109, 110, 103
35, 103, 110, 111, 104
36, 104, 111, 112, 105
37, 105, 112, 113, 106
38, 106, 113, 114, 107
39, 107, 114, 115, 108
40, 108, 115, 69, 70
41, 9, 10, 116, 109
42, 109, 116, 117, 110
43, 110, 117, 118, 111
44, 111, 118, 119, 112
45, 112, 119, 120, 113
46, 113, 120, 121, 114
47, 114, 121, 122, 115
48, 115, 122, 68, 69
49, 10, 11, 123, 116
50, 116, 123, 124, 117
51, 117, 124, 125, 118
52, 118, 125, 126, 119
53, 119, 126, 127, 120
54, 120, 127, 128, 121
55, 121, 128, 129, 122
56, 122, 129, 67, 68
57, 11, 12, 130, 123
58, 123, 130, 131, 124
59, 124, 131, 132, 125
60, 125, 132, 133, 126
61, 126, 133, 134, 127
62, 127, 134, 135, 128
63, 128, 135, 136, 129
64, 129, 136, 66, 67
65, 12, 13, 137, 130
66, 130, 137, 138, 131
67, 131, 138, 139, 132
68, 132, 139, 140, 133
69, 133, 140, 141, 134
70, 134, 141, 142, 135
71, 135, 142, 143, 136
72, 136, 143, 65, 66
73, 13, 14, 144, 137
74, 137, 144, 145, 138
75, 138, 145, 146, 139
76, 139, 146, 147, 140
77, 140, 147, 148, 141
78, 141, 148, 149, 142
79, 142, 149, 150, 143
80, 143, 150, 64, 65
81, 14, 15, 151, 144
82, 144, 151, 152, 145
83, 145, 152, 153, 146
84, 146, 153, 154, 147
85, 147, 154, 155, 148
86, 148, 155, 156, 149
87, 149, 156, 157, 150
88, 150, 157, 63, 64
89, 15, 16, 158, 151
90, 151, 158, 159, 152
91, 152, 159, 160, 153
92, 153, 160, 161, 154
93, 154, 161, 162, 155
94, 155, 162, 163, 156
95, 156, 163, 164, 157
96, 157, 164, 62, 63
97, 16, 17, 165, 158
98, 158, 165, 166, 159
99, 159, 166, 167, 160
100, 160, 167, 168, 161
101, 161, 168, 169, 162
102, 162, 169, 170, 163
103, 163, 170, 171, 164
104, 164, 171, 61, 62
105, 17, 18, 172, 165
106, 165, 172, 173, 166
107, 166, 173, 174, 167
108, 167, 174, 175, 168
109, 168, 175, 176, 169
110, 169, 176, 177, 170
111, 170, 177, 178, 171
112, 171, 178, 60, 61
113, 18, 19, 179, 172
114, 172, 179, 180, 173
115, 173, 180, 181, 174
116, 174, 181, 182, 175
117, 175, 182, 183, 176
118, 176, 183, 184, 177
119, 177, 184, 185, 178
120, 178, 185, 59, 60
121, 19, 20, 186, 179
122, 179, 186, 187, 180
123, 180, 187, 188, 181
124, 181, 188, 189, 182
125, 182, 189, 190, 183
126, 183, 190, 191, 184
127, 184, 191, 192, 185
128, 185, 192, 58, 59
129, 20, 21, 193, 186
130, 186, 193, 194, 187
131, 187, 194, 195, 188
132, 188, 195, 196, 189
133, 189, 196, 197, 190
134, 190, 197, 198, 191
135, 191, 198, 199, 192
136, 192, 199, 57, 58
137, 21, 22, 200, 193
138, 193, 200, 201, 194
139, 194, 201, 202, 195
140, 195, 202, 203, 196
141, 196, 203, 204, 197
142, 197, 204, 205, 198
143, 198, 205, 206, 199
144, 199, 206, 56, 57
145, 22, 23, 207, 200
146, 200, 207, 208, 201
147, 201, 208, 209, 202
148, 202, 209, 210, 203
149, 203, 210, 211, 204
150, 204, 211, 212, 205
151, 205, 212, 213, 206
152, 206, 213, 55, 56
153, 23, 24, 214, 207
154, 207, 214, 215, 208
155, 208, 215, 216, 209
156, 209, 216, 217, 210
157, 210, 217, 218, 211
158, 211, 218, 219, 212
159, 212, 219, 220, 213
160, 213, 220, 54, 55
161, 24, 25, 221, 214
162, 214, 221, 222, 215
163, 215, 222, 223, 216
164, 216, 223, 224, 217
165, 217, 224, 225, 218
166, 218, 225, 226, 219
167, 219, 226, 227, 220
168, 220, 227, 53, 54
169, 25, 26, 228, 221
170, 221, 228, 229, 222
171, 222, 229, 230, 223
172, 223, 230, 231, 224
173, 224, 231, 232, 225
174, 225, 232, 233, 226
175, 226, 233, 234, 227
176, 227, 234, 52, 53
177, 26, 27, 235, 228
178, 228, 235, 236, 229
179, 229, 236, 237, 230
180, 230, 237, 238, 231
181, 231, 238, 239, 232
182, 232, 239, 240, 233
183, 233, 240, 241, 234
184, 234, 241, 51, 52
185, 27, 28, 242, 235
186, 235, 242, 243, 236
187, 236, 243, 244, 237
188, 237, 244, 245, 238
189, 238, 245, 246, 239
190, 239, 246, 247, 240
191, 240, 247, 248, 241
192, 241, 248, 50, 51
193, 28, 29, 249, 242
194, 242, 249, 250, 243
195, 243, 250, 251, 244
196, 244, 251, 252, 245
197, 245, 252, 253, 246
198, 246, 253, 254, 247
199, 247, 254, 255, 248
200, 248, 255, 49, 50
201, 29, 30, 256, 249
202, 249, 256, 257, 250
203, 250, 257, 258, 251
204, 251, 258, 259, 252
205, 252, 259, 260, 253
206, 253, 260, 261, 254
207, 254, 261, 262, 255
208, 255, 262, 48, 49
209, 30, 31, 263, 256
210, 256, 263, 264, 257
211, 257, 264, 265, 258
212, 258, 265, 266, 259
213, 259, 266, 267, 260
214, 260, 267, 268, 261
215, 261, 268, 269, 262
216, 262, 269, 47, 48
217, 31, 32, 270, 263
218, 263, 270, 271, 264
219, 264, 271, 272, 265
220, 265, 272, 273, 266
221, 266, 273, 274, 267
222, 267, 274, 275, 268
223, 268, 275, 276, 269
224, 269, 276, 46, 47
225, 32, 33, 277, 270
226, 270, 277, 278, 271
227, 271, 278, 279, 272
228, 272, 279, 280, 273
229, 273, 280, 281, 274
230, 274, 281, 282, 275
231, 275, 282, 283, 276
232, 276, 283, 45, 46
233, 33, 34, 284, 277
234, 277, 284, 285, 278
235, 278, 285, 286, 279
236, 279, 286, 287, 280
237, 280, 287, 288, 281
238, 281, 288, 289, 282
239, 282, 289, 290, 283
240, 283, 290, 44, 45
241, 34, 35, 291, 284
242, 284, 291, 292, 285
243, 285, 292, 293, 286
244, 286, 293, 294, 287
245, 287, 294, 295, 288
246, 288, 295, 296, 289
247, 289, 296, 297, 290
248, 290, 297, 43, 44
249, 35, 2, 36, 291
250, 291, 36, 37, 292
251, 292, 37, 38, 293
252, 293, 38, 39, 294
253, 294, 39, 40, 295
254, 295, 40, 41, 296
255, 296, 41, 42, 297
256, 297, 42, 3, 43
*ELSET,ELSET=inlet
73, 74, 75, 76, 77, 78, 79, 80, 
*ELSET,ELSET=outlet
33, 34, 35, 36, 37, 38, 39, 40, 
*ELSET,ELSET=walls
1, 2, 3, 4, 5, 6, 7, 8, 9, 10, 
11, 12, 13, 14, 15, 16, 17, 18, 19, 20, 
21, 22, 23, 24, 25, 26, 27, 28, 29, 30, 
31, 32, 41, 42, 43, 44, 45, 46, 47, 48, 
49, 50, 51, 52, 53, 54, 55, 56, 57, 58, 
59, 60, 61, 62, 63, 64, 65, 66, 67, 68, 
69, 70, 71, 72, 
*ELSET,ELSET=domain
81, 82, 83, 84, 85, 86, 87, 88, 89, 90, 
91, 92, 93, 94, 95, 96, 97, 98, 99, 100, 
101, 102, 103, 104, 105, 106, 107, 108, 109, 110, 
111, 112, 113, 114, 115, 116, 117, 118, 119, 120, 
121, 122, 123, 124, 125, 126, 127, 128, 129, 130, 
131, 132, 133, 134, 135, 136, 137, 138, 139, 140, 
141, 142, 143, 144, 145, 146, 147, 148, 149, 150, 
151, 152, 153, 154, 155, 156, 157, 158, 159, 160, 
161, 162, 163, 164, 165, 166, 167, 168, 169, 170, 
171, 172, 173, 174, 175, 176, 177, 178, 179, 180, 
181, 182, 183, 184, 185, 186, 187, 188, 189, 190, 
191, 192, 193, 194, 195, 196, 197, 198, 199, 200, 
201, 202, 203, 204, 205, 206, 207, 208, 209, 210, 
211, 212, 213, 214, 215, 216, 217, 218, 219, 220, 
221, 222, 223, 224, 225, 226, 227, 228, 229, 230, 
231, 232, 233, 234, 235, 236, 237, 238, 239, 240, 
241, 242, 243, 244, 245, 246, 247, 248, 249, 250, 
251, 252, 253, 254, 255, 256, 257, 258, 259, 260, 
261, 262, 263, 264, 265, 266, 267, 268, 269, 270, 
271, 272, 273, 274, 275, 276, 277, 278, 279, 280, 
281, 282, 283, 284, 285, 286, 287, 288, 289, 290, 
291, 292, 293, 294, 295, 296, 297, 298, 299, 300, 
301, 302, 303, 304, 305, 306, 307, 308, 309, 310, 
311, 312, 313, 314, 315, 316, 317, 318, 319, 320, 
321, 322, 323, 324, 325, 326, 327, 328, 329, 330, 
331, 332, 333, 334, 335, 336, 
*NSET,NSET=inlet
1, 4, 74, 75, 76, 77, 78, 79, 80, 
*NSET,NSET=outlet
2, 3, 36, 37, 38, 39, 40, 41, 42, 
*NSET,NSET=walls
1, 2, 3, 4, 5, 6, 7, 8, 9, 10, 
11, 12, 13, 14, 15, 16, 17, 18, 19, 20, 
21, 22, 23, 24, 25, 26, 27, 28, 29, 30, 
31, 32, 33, 34, 35, 43, 44, 45, 46, 47, 
48, 49, 50, 51, 52, 53, 54, 55, 56, 57, 
58, 59, 60, 61, 62, 63, 64, 65, 66, 67, 
68, 69, 70, 71, 72, 73, 
*NSET,NSET=domain
1, 2, 3, 4, 5, 6, 7, 8, 9, 10, 
11, 12, 13, 14, 15, 16, 17, 18, 19, 20, 
21, 22, 23, 24, 25, 26, 27, 28, 29, 30, 
31, 32, 33, 34, 35, 36, 37, 38, 39, 40, 
41, 42, 43, 44, 45, 46, 47, 48, 49, 50, 
51, 52, 53, 54, 55, 56, 57, 58, 59, 60, 
61, 62, 63, 64, 65, 66, 67, 68, 69, 70, 
71, 72, 73, 74, 75, 76, 77, 78, 79, 80, 
81, 82, 83, 84, 85, 86, 87, 88, 89, 90, 
91, 92, 93, 94, 95, 96, 97, 98, 99, 100, 
101, 102, 103, 104, 105, 106, 107, 108, 109, 110, 
111, 112, 113, 114, 115, 116, 117, 118, 119, 120, 
121, 122, 123, 124, 125, 126, 127, 128, 129, 130, 
131, 132, 133, 134, 135, 136, 137, 138, 139, 140, 
141, 142, 143, 144, 145, 146, 147, 148, 149, 150, 
151, 152, 153, 154, 155, 156, 157, 158, 159, 160, 
161, 162, 163, 164, 165, 166, 167, 168, 169, 170, 
171, 172, 173, 174, 175, 176, 177, 178, 179, 180, 
181, 182, 183, 184, 185, 186, 187, 188, 189, 190, 
191, 192, 193, 194, 195, 196, 197, 198, 199, 200, 
201, 202, 203, 204, 205, 206, 207, 208, 209, 210, 
211, 212, 213, 214, 215, 216, 217, 218, 219, 220, 
221, 222, 223, 224, 225, 226, 227, 228, 229, 230, 
231, 232, 233, 234, 235, 236, 237, 238, 239, 240, 
241, 242, 243, 244, 245, 246, 247, 248, 249, 250, 
251, 252, 253, 254, 255, 256, 257, 258, 259, 260, 
261, 262, 263, 264, 265, 266, 267, 268, 269, 270, 
271, 272, 273, 274, 275, 276, 277, 278, 279, 280, 
281, 282, 283, 284, 285, 286, 287, 288, 289, 290, 
291, 292, 293, 294, 295, 296, 297, 
