*Heading
 /Users/jfarrell/Downloads/compass.inp
*NODE
1, -0.75, -5, 0
2, -0.75, -7.5, 0
3, 0.75, -7.5, 0
4, 0.75, -5, 0
5, 3.9393398282202, -5, 0
6, 5.7071067811865, -6.7677669529664, 0
7, 6.7677669529664, -5.7071067811865, 0
8, 5, -3.9393398282202, 0
9, 5, -0.75, 0
10, 7.5, -0.75, 0
11, 7.5, 0.75, 0
12, 5, 0.75, 0
13, 5, 3.9393398282202, 0
14, 6.7677669529664, 5.7071067811865, 0
15, 5.7071067811865, 6.7677669529664, 0
16, 3.9393398282202, 5, 0
17, 0.75, 5, 0
18, 0.75, 7.5, 0
19, -0.75, 7.5, 0
20, -0.75, 5, 0
21, -3.9393398282202, 5, 0
22, -5.7071067811865, 6.7677669529664, 0
23, -6.7677669529664, 5.7071067811865, 0
24, -5, 3.9393398282202, 0
25, -5, 0.75, 0
26, -7.5, 0.75, 0
27, -7.5, -0.75, 0
28, -5, -0.75, 0
29, -5, -3.9393398282202, 0
30, -6.7677669529664, -5.7071067811865, 0
31, -5.7071067811865, -6.7677669529664, 0
32, -3.9393398282202, -5, 0
33, -0.75, -5.625, 0
34, -0.75, -6.25, 0
35, -0.75, -6.875, 0
36, 0, -7.5, 0
37, 0.75, -6.875, 0
38, 0.75, -6.25, 0
39, 0.75, -5.625, 0
40, 1.547334957055, -5, 0
41, 2.3446699141101, -5, 0
42, 3.1420048711651, -5, 0
43, 4.3812815664618, -5.4419417382416, 0
44, 4.8232233047034, -5.8838834764832, 0
45, 5.265165042945, -6.3258252147248, 0
46, 6.2374368670765, -6.2374368670765, 0
47, 6.3258252147248, -5.265165042945, 0
48, 5.8838834764832, -4.8232233047034, 0
49, 5.4419417382416, -4.3812815664618, 0
50, 5, -3.1420048711651, 0
51, 5, -2.3446699141101, 0
52, 5, -1.547334957055, 0
53, 5.625, -0.75, 0
54, 6.25, -0.75, 0
55, 6.875, -0.75, 0
56, 7.5, 0, 0
57, 6.875, 0.75, 0
58, 6.25, 0.75, 0
59, 5.625, 0.75, 0
60, 5, 1.547334957055, 0
61, 5, 2.3446699141101, 0
62, 5, 3.1420048711651, 0
63, 5.4419417382416, 4.3812815664618, 0
64, 5.8838834764832, 4.8232233047034, 0
65, 6.3258252147248, 5.265165042945, 0
66, 6.2374368670765, 6.2374368670765, 0
67, 5.265165042945, 6.3258252147248, 0
68, 4.8232233047034, 5.8838834764832, 0
69, 4.3812815664618, 5.4419417382416, 0
70, 3.1420048711651, 5, 0
71, 2.3446699141101, 5, 0
72, 1.547334957055, 5, 0
73, 0.75, 5.625, 0
74, 0.75, 6.25, 0
75, 0.75, 6.875, 0
76, 0, 7.5, 0
77, -0.75, 6.875, 0
78, -0.75, 6.25, 0
79, -0.75, 5.625, 0
80, -1.547334957055, 5, 0
81, -2.3446699141101, 5, 0
82, -3.1420048711651, 5, 0
83, -4.3812815664618, 5.4419417382416, 0
84, -4.8232233047034, 5.8838834764832, 0
85, -5.265165042945, 6.3258252147248, 0
86, -6.2374368670765, 6.2374368670765, 0
87, -6.3258252147248, 5.265165042945, 0
88, -5.8838834764832, 4.8232233047034, 0
89, -5.4419417382416, 4.3812815664618, 0
90, -5, 3.1420048711651, 0
91, -5, 2.3446699141101, 0
92, -5, 1.547334957055, 0
93, -5.625, 0.75, 0
94, -6.25, 0.75, 0
95, -6.875, 0.75, 0
96, -7.5, 0, 0
97, -6.875, -0.75, 0
98, -6.25, -0.75, 0
99, -5.625, -0.75, 0
100, -5, -1.547334957055, 0
101, -5, -2.3446699141101, 0
102, -5, -3.1420048711651, 0
103, -5.4419417382416, -4.3812815664618, 0
104, -5.8838834764832, -4.8232233047034, 0
105, -6.3258252147248, -5.265165042945, 0
106, -6.2374368670765, -6.2374368670765, 0
107, -5.265165042945, -6.3258252147248, 0
108, -4.8232233047034, -5.8838834764832, 0
109, -4.3812815664618, -5.4419417382416, 0
110, -3.1420048711651, -5, 0
111, -2.3446699141101, -5, 0
112, -1.547334957055, -5, 0
113, -1.2709204406576, -4.4229912500168, 0
114, 4.4225627190572, -1.2966327413854, 0
115, 1.4675510405343, 4.408536211006, 0
116, -4.3905497461017, 1.2195424735677, 0
117, 1.4963371118704, -4.4726367262414, 0
118, 4.4530130199505, 1.1677372345059, 0
119, -4.4248966664435, -1.4895172734835, 0
120, -1.3593325995828, 4.4068959007322, 0
121, 4.3623364212443, 2.6443307916129, 0
122, 2.6951822390413, -4.4821867972862, 0
123, -2.8882147356241, 4.3735905747994, 0
124, -4.4359755830659, -2.7356430732174, 0
125, 4.2295364458635, -2.7571167434086, 0
126, 2.8902230836926, 4.3720813870309, 0
127, -4.366847911177, 2.5683177727549, 0
128, -2.8172214555789, -4.1990199973012, 0
129, 4.4919869627951, 0.57898261001279, 0
130, 3.8980955987109, 0.74457789167135, 0
131, -0.48725599717027, 4.5252560158294, 0
132, -1.2277249688529, 3.8279985506963, 0
133, 0.61438450383487, -4.4986109001838, 0
134, 0.93513254525088, -3.8931360918895, 0
135, -4.4914450935182, -0.60465968310104, 0
136, -3.8257088401374, -0.8741554280928, 0
137, 0.27898095166238, -3.8769816662612, 0
138, 0.52204742823594, -3.3195801090375, 0
139, 1.171047965191, -3.325899271607, 0
140, 0.72068567758479, -2.7664929776401, 0
141, 0.061653729365293, -2.7639095698584, 0
142, 0.20276146659529, -2.2139123964746, 0
143, 0.32687739965646, -1.6657063452558, 0
144, 0.97085068002606, -1.6679692231197, 0
145, 0.42878226203794, -1.1201895576988, 0
146, -0.16010542959849, -1.0814089471263, 0
147, -0.089366768224595, -0.59274026129521, 0
148, -0.47433809109462, -0.60391841677082, 0
149, -0.13234582732387, -0.10282643141734, 0
150, -0.64187112350066, -0.2699994049481, 0
151, 0.46642908082888, -0.046335741381643, 0
152, 0.4117123282161, 0.48430611486301, 0
153, 0.36534186824364, 1.0183575999993, 0
154, 0.96870804005237, 1.064971811543, 0
155, -1.0392451847009, -0.61334807506464, 0
156, -1.4210874172904, -0.1988960801223, 0
157, 0.9759191879055, 1.565649839625, 0
158, 1.4074000318395, 1.5325348163364, 0
159, 0.37705004578774, 1.558311180193, 0
160, 1.0261880915004, 0.53962134702318, 0
161, 1.3608733673588, -2.7654356382576, 0
162, 0.45681427387255, 2.1150160058729, 0
163, -1.7871466797398, -0.6479577258227, 0
164, -2.1628151418173, -0.31402971529493, 0
165, -1.8659818963383, 0.15567038285873, 0
166, -0.18873004644307, 2.0902992250537, 0
167, -2.3546638377626, 0.41085713396347, 0
168, -2.040023654743, 0.95722277309881, 0
169, -1.3958305418015, -1.0565381867635, 0
170, -2.1688454808457, -0.97057833737338, 0
171, -1.8318693303169, -1.4647392347149, 0
172, -2.4722152107403, -1.8217136882139, 0
173, 1.0445610111436, -1.1153302341846, 0
174, -1.9584326552168, -2.4110141585817, 0
175, -0.60903428356964, -2.7468713390372, 0
176, 3.8707971722935, 0.11470104370887, 0
177, 3.3134467632946, 0.17742649365952, 0
178, 3.3200697359715, -0.43876505992347, 0
179, 3.3085851196675, 0.81981067034605, 0
180, -0.56424735344586, 3.8707593440394, 0
181, -3.7675209838387, -0.26768698014416, 0
182, -2.5808336495838, 1.1612264520818, 0
183, -2.2842189633529, 1.7161734574633, 0
184, -0.25536977489847, 1.5054267317958, 0
185, -0.83346260236029, 2.073420850661, 0
186, -3.8236442291868, -1.5476087458936, 0
187, -2.7313950180571, -2.3324269704467, 0
188, -3.1195932083809, 1.3621841149117, 0
189, -2.8316316815488, 1.902802228158, 0
190, 2.7638359317456, 0.14980469809437, 0
191, 2.7796545799179, -0.4562154923297, 0
192, -3.2048815027859, -0.45272182401247, 0
193, -2.4829014716066, -2.8481837783144, 0
194, 1.5894994282132, -1.6581884150256, 0
195, 1.8407771719549, -3.3410938058079, 0
196, 2.0045263569594, -2.762288901285, 0
197, -0.71822283431272, 3.2686795516077, 0
198, 0.0073978874356893, 3.2743581229385, 0
199, 1.6421175319125, -1.0998608281016, 0
200, -2.0125027869587, 2.2759942640346, 0
201, -2.5655618867957, 2.4517375338913, 0
202, -1.7644242663231, 2.8092973046626, 0
203, -3.178938631315, -2.9282078919985, 0
204, 2.1842002524744, -1.6368966160627, 0
205, 3.3250002066011, -1.0250040180388, 0
206, -1.6967335560937, -2.7726039779085, 0
207, 2.2173567790503, 0.095400061905713, 0
208, -3.3984229718822, 0.82548778923592, 0
209, -3.1371592788034, 2.619590164303, 0
210, 1.0785193385444, -0.5597275935288, 0
211, -1.5025798601894, 0.69445675630316, 0
212, -1.9057364748273, -3.1335823535111, 0
213, -0.48364798908019, -2.1674177796225, 0
214, 5.2474944929176, -4.8728697911152, 0
215, -4.9566130522476, 4.5383152040828, 0
216, -4.6096323818071, 3.9669835498309, 0
217, 4.8780369605436, 5.2232248592553, 0
218, -4.8709656267241, -5.2479109446404, 0
219, -5.778706617573, 5.4285910842682, 0
220, 0.2404720506631, -5.2911732790057, 0
221, 5.4818970153709, -0.25215341053389, 0
222, 0.26563568951121, 5.4923807539947, 0
223, -5.290148423108, -0.23974888777013, 0
224, -0.24727062457003, -6.6061894758893, 0
225, 6.6108317128846, -0.24915389812304, 0
226, 0.25000154726006, 6.6110746378023, 0
227, -6.6057354248438, 0.24794133928094, 0
228, -1.3751589765507, -3.2625680129877, 0
229, 2.5351107666658, -3.3476150817885, 0
230, 2.6506696663271, -2.7537151359203, 0
231, 3.2181255033022, -3.3281256067736, 0
232, 2.1555174058014, 0.70234277346311, 0
233, -3.2124425506345, -2.2920142220525, 0
234, -2.9355362563824, 3.1964294306972, 0
235, -2.6493532922541, -1.0920722147533, 0
236, -3.6760077100234, 3.4455069790221, 0
237, 2.7775060843058, -1.0404374898306, 0
238, 3.3203926970953, -1.5913473143225, 0
239, -0.59353246362907, -4.4203739068582, 0
240, 4.417170157218, -0.64972390935826, 0
241, -4.1973518708271, 0.50349745720409, 0
242, 0.79414004544838, 4.4156120739622, 0
243, 0.73806609566951, 3.8438203432061, 0
244, 1.3900614832346, 3.8282506101414, 0
245, 1.3082079501173, 3.2520733710978, 0
246, 1.9536504975447, 3.2188948191231, 0
247, 1.2132128553682, 2.6623402528421, 0
248, 1.86924465505, 2.6194020567762, 0
249, 2.5802253634971, 3.1636007401521, 0
250, 2.497624133665, 2.5827557551581, 0
251, 2.504201997339, 2.0149850141282, 0
252, 3.1773268510487, 3.0602497531809, 0
253, 2.9445543505475, 2.0654095596763, 0
254, -3.0807581095204, 0.089196641940747, 0
255, -3.6670355514106, 1.5769471182006, 0
256, 4.5913605665321, -4.9513739884556, 0
257, 4.0000533092021, -4.4841710501272, 0
258, 4.9764678142871, 4.5504337096327, 0
259, 4.6591582628229, 3.999131233193, 0
260, -4.9435684719785, -4.5896519929353, 0
261, -4.4647426259508, -3.9994398064181, 0
262, 5.4319543123442, -5.7777247667637, 0
263, 5.7787115475621, 5.4282215906526, 0
264, -5.7773764652919, -5.4317350695567, 0
265, 5.8460596337629, 0.24624302746007, 0
266, -0.24143602725733, 5.8482546821969, 0
267, -4.8742956242915, 5.2172394622796, 0
268, 4.2051500080385, 1.9765611819799, 0
269, 2.0352936301663, -4.4888985266225, 0
270, -3.5286734093248, 4.317995513834, 0
271, -4.360855992624, 1.8943255139464, 0
272, 2.7607762898353, -1.611747041137, 0
273, 3.3247112158414, -2.1626896767786, 0
274, -1.9981918716727, -4.3706640000686, 0
275, 4.3927858144369, -1.9841812609519, 0
276, 4.3823073324509, -3.7298282048723, 0
277, 3.5596779595046, 4.3029852943774, 0
278, -3.6940242397528, -4.3523465970573, 0
279, -3.7868906837113, 2.2335113369514, 0
280, 0.56259074351548, 2.6862347242868, 0
281, -2.5828068225904, -0.093497889569996, 0
282, -3.0710116588242, -3.5415759276556, 0
283, 3.5970426178729, 2.2619795370874, 0
284, 2.6127750810276, 1.4215968017022, 0
285, 2.0368043955393, 1.2860560914792, 0
286, -0.70581718170608, 2.6735463484375, 0
287, -4.424936732565, -2.2288905973406, 0
288, -2.1513533557878, 4.3688637860204, 0
289, -1.9942795863537, 3.6368620926421, 0
290, 2.185446723045, 4.3953121282132, 0
291, -1.0043288308564, -3.8553313529857, 0
292, -3.7386174469218, -3.7314924591316, 0
293, 1.776752999561, 1.9046115846115, 0
294, 3.305225966901, -2.7476738988104, 0
295, 4.0080926780442, 1.3554394206974, 0
296, -0.24857430169916, 0.95753160520042, 0
297, -0.24745265862673, -6.0450771237279, 0
298, -6.045012377927, 0.24785568453803, 0
299, -0.90047006371875, 0.32918398624785, 0
300, -0.643136812648, -0.92532492431869, 0
301, 0.47249649078211, -0.57902439937001, 0
302, -0.19887505355851, 0.41572495643912, 0
303, -2.3474948416252, -0.62226365480837, 0
304, -0.086523526588053, 2.6836704000237, 0
305, -1.1603681981041, 3.0460059306332, 0
306, 1.0875482898706, 2.0787272727307, 0
307, 0.8546524587956, -2.215185336999, 0
308, -0.31739377772844, -1.5946580280801, 0
309, 1.0660379423188, -0.0066182562576584, 0
310, -0.70896442729431, 0.88066546985433, 0
311, -0.13342798001707, -3.3152812753212, 0
312, -0.90526893144127, -1.3944735209862, 0
313, 2.2290524533979, -0.49610129331454, 0
314, 2.7133350882337, 0.78419473835806, 0
315, -0.99760773647094, 1.3265575709308, 0
316, -1.7087397550696, 1.5378806056616, 0
317, 1.4884616718417, -2.2095827001785, 0
318, -1.2884049182488, -2.0337275783428, 0
319, 1.505408673206, 1.1448115291834, 0
320, -3.2079151387454, -1.6601258880668, 0
321, 1.6383509966974, -3.9265922492101, 0
322, -3.2161517198953, -1.0328342091909, 0
323, -1.4466829145075, 2.1361952007424, 0
324, -1.2493283057025, -2.7289482076191, 0
325, 1.6485306926684, 0.040987425176731, 0
326, 4.4748350204569, 3.3431494099117, 0
327, 3.2118334291407, -4.4606352394577, 0
328, 3.922412625868, 3.52721806786, 0
329, 3.8683339041778, -1.1100315033603, 0
330, 3.8062097300666, -3.8002539733314, 0
331, -3.3119455644774, 3.869410632449, 0
332, 4.9203583544701, 0.18517603585141, 0
333, -0.13585951989234, 4.9423300783825, 0
334, -0.18235282315597, -4.8854113471444, 0
335, -4.9126368424072, 0.16481450155892, 0
336, -3.9540269261237, -3.0143669890953, 0
337, -4.4208166156989, 3.2828315289253, 0
338, -3.6126268046247, 0.28848889939567, 0
339, 2.1075279972092, -2.1973664748141, 0
340, 3.7632794344272, 2.8794642872436, 0
341, -1.4675110245007, 3.2143572432512, 0
342, -4.4419848947507, -3.4115901902261, 0
343, 3.8465178446156, -1.6965743296367, 0
344, -0.77841177660001, -3.2991123342436, 0
345, 3.76243718738, -2.1639952587266, 0
346, 2.4162531880485, -4.0554233284401, 0
347, -2.6006411091621, -3.3764684433956, 0
348, -3.9516544095448, 1.0439503310662, 0
349, 3.7100891776136, -3.3461106660412, 0
350, 2.0556574779578, 3.8004383804783, 0
351, -5.3742428548404, 5.0077033054468, 0
352, 5.0323271620796, -5.3730550763283, 0
353, 5.3793567559038, 5.0119028581194, 0
354, -5.370911981378, -5.0323981462432, 0
355, 4.4836562192857, 4.7299217849038, 0
356, -4.4445873128085, -4.8930230007212, 0
357, 5.6463911763147, -5.2899232573468, 0
358, 5.2912492833403, 5.6408578890659, 0
359, -5.2894531672111, -5.6463338883115, 0
360, -4.4608767969178, 4.7190922772429, 0
361, -5.2906551318766, 5.6398246246055, 0
362, 0.24776775956317, -6.4127532544019, 0
363, 6.0503554786135, -0.25253650409984, 0
364, 0.25708097718681, 6.0528399042963, 0
365, -0.24602701607663, 6.4171568037304, 0
366, -5.8400627921481, -0.25021146043736, 0
367, 4.8123158274948, -4.4823613106859, 0
368, 6.4166432336667, 0.24721948186115, 0
369, -6.4121617977957, -0.24678457633051, 0
370, 0.25027003124716, -5.8398470350278, 0
371, 3.3355009643892, 3.6647385971355, 0
372, -2.8543691948831, 0.62246569287782, 0
373, -1.6572298968217, -3.7838654751491, 0
374, -1.2619141500243, 2.6811932885409, 0
375, -2.2352490947499, -3.5950887542398, 0
376, 3.8666662438432, -0.51929392363917, 0
377, -5.4767723047142, 0.24095896600155, 0
378, 5.2979246225052, 0.22768460553491, 0
379, -0.20590832758598, 5.3099410121758, 0
380, -0.24297634312342, -5.4738671327953, 0
381, 4.1588567122844, 4.1488708376234, 0
382, 4.4265562690611, -4.226438013938, 0
383, 0.085648655452196, 3.8586258515707, 0
384, -4.1982150762159, -4.4248176949142, 0
385, 0.022753821942501, -4.4185167020483, 0
386, -4.3418206401384, -0.036467906227278, 0
387, 4.4192450003831, -0.05108998783516, 0
388, 0.17290145130178, 4.4292859874463, 0
389, -4.0911594337512, 4.1369645919845, 0
390, -0.36418189422758, -3.8670820564023, 0
391, 3.0515783916142, 2.4732273044876, 0
392, -2.6890794719806, -0.56655791541653, 0
393, 3.1866099661256, -3.9087113459652, 0
394, -2.3218167699907, 3.0065688039042, 0
395, -3.8362215312942, -2.2427875820034, 0
396, 3.2898458318851, 1.5954301148239, 0
397, 0.65559489584672, 3.2647887072477, 0
398, 1.6547211170837, -0.5304297554749, 0
399, -3.3821242269828, 2.0878462345778, 0
400, -2.8202610126749, 3.7754292060972, 0
401, 2.2098579165063, -1.0695586495356, 0
402, 0.20850764298434, -4.9149320675636, 0
403, -4.9101438474552, -0.21087135531797, 0
404, 4.907751425511, -0.20814955747103, 0
405, 0.24592980905404, 4.9650824502211, 0
406, -3.7482365257504, 2.6839148554698, 0
407, 6.0456839910058, 5.723349392837, 0
408, -6.0452739853408, -5.7245134051045, 0
409, 0.22839620878479, 7.003863900596, 0
410, -0.2299164897547, -7.0006258157105, 0
411, -6.0458226945457, 5.7234901639095, 0
412, 7.0037724118436, -0.22812387791538, 0
413, -7.0004374595154, 0.23002551861606, 0
414, 5.7245990419793, -6.0453790813771, 0
415, 6.0401810612763, -5.7297970563837, 0
416, 5.7298269678971, 6.0392064065887, 0
417, -5.7297873039544, -6.0400000725799, 0
418, -5.7299408480021, 6.0393719992034, 0
419, -0.22099166012062, 7.0038638927666, 0
420, 0.21273518887878, -7.0000820379929, 0
421, -7.0004374564653, -0.21389310844648, 0
422, 7.0037724082964, 0.22092940982833, 0
423, 2.7154616702462, -2.1814293504216, 0
424, 2.7125230309495, 3.7511959920235, 0
425, -1.1652480602314, 3.4524173185124, 0
426, 1.5895061889762, 0.60884582636088, 0
******* E L E M E N T S *************
*ELEMENT, type=CPS4, ELSET=Surface1
1, 286, 304, 198, 197
2, 292, 282, 203, 336
3, 304, 280, 397, 198
4, 227, 369, 366, 298
5, 370, 297, 224, 362
6, 236, 337, 127, 406
7, 338, 254, 372, 208
8, 336, 395, 287, 124
9, 205, 238, 343, 329
10, 340, 328, 371, 252
11, 355, 381, 259, 258
12, 367, 382, 257, 256
13, 356, 384, 261, 260
14, 112, 1, 239, 113
15, 40, 117, 133, 4
16, 52, 9, 240, 114
17, 60, 118, 129, 12
18, 80, 120, 131, 20
19, 100, 119, 135, 28
20, 72, 17, 242, 115
21, 41, 122, 346, 269
22, 259, 326, 62, 13
23, 257, 327, 42, 5
24, 346, 393, 231, 229
25, 268, 283, 396, 295
26, 360, 215, 216, 389
27, 282, 128, 375, 347
28, 271, 116, 348, 255
29, 207, 232, 426, 325
30, 328, 340, 121, 326
31, 21, 270, 123, 82
32, 352, 262, 357, 214
33, 351, 215, 360, 267
34, 355, 258, 353, 217
35, 356, 260, 354, 218
36, 368, 265, 363, 225
37, 365, 266, 364, 226
38, 361, 219, 351, 267
39, 367, 256, 352, 214
40, 353, 263, 358, 217
41, 354, 264, 359, 218
42, 341, 202, 374, 305
43, 289, 288, 123, 400
44, 345, 343, 238, 273
45, 16, 70, 126, 277
46, 8, 50, 125, 276
47, 120, 288, 289, 132
48, 32, 110, 128, 278
49, 366, 223, 377, 298
50, 364, 266, 379, 222
51, 370, 220, 380, 297
52, 363, 265, 378, 221
53, 346, 321, 117, 269
54, 261, 384, 278, 292
55, 60, 268, 295, 118
56, 186, 395, 233, 320
57, 90, 337, 216, 24
58, 102, 124, 287, 101
59, 82, 123, 288, 81
60, 293, 158, 319, 285
61, 290, 350, 424, 126
62, 117, 40, 41, 269
63, 121, 268, 60, 61
64, 295, 130, 129, 118
65, 321, 346, 229, 195
66, 114, 275, 51, 52
67, 113, 274, 111, 112
68, 273, 423, 230, 294
69, 275, 125, 50, 51
70, 274, 128, 110, 111
71, 119, 100, 101, 287
72, 120, 80, 81, 288
73, 324, 206, 212, 228
74, 162, 306, 247, 280
75, 311, 344, 291, 390
76, 293, 285, 284, 251
77, 102, 29, 261, 342
78, 128, 282, 292, 278
79, 115, 290, 71, 72
80, 293, 251, 250, 248
81, 25, 116, 271, 92
82, 70, 71, 290, 126
83, 293, 306, 157, 158
84, 120, 132, 180, 131
85, 349, 231, 393, 330
86, 125, 275, 343, 345
87, 306, 293, 248, 247
88, 322, 320, 172, 235
89, 127, 91, 92, 271
90, 25, 241, 348, 116
91, 184, 159, 162, 166
92, 153, 159, 184, 296
93, 153, 296, 302, 152
94, 306, 162, 159, 157
95, 143, 144, 173, 145
96, 147, 149, 150, 148
97, 163, 156, 165, 164
98, 281, 164, 165, 167
99, 298, 94, 95, 227
100, 35, 224, 297, 34
101, 210, 301, 145, 173
102, 146, 145, 301, 147
103, 149, 147, 301, 151
104, 151, 152, 302, 149
105, 280, 304, 166, 162
106, 142, 213, 175, 141
107, 159, 153, 154, 157
108, 177, 190, 191, 178
109, 155, 150, 299, 156
110, 211, 165, 156, 299
111, 149, 302, 299, 150
112, 142, 143, 308, 213
113, 140, 141, 311, 138
114, 145, 146, 308, 143
115, 160, 154, 153, 152
116, 147, 148, 300, 146
117, 150, 155, 300, 148
118, 304, 286, 185, 166
119, 160, 152, 151, 309
120, 151, 301, 210, 309
121, 299, 302, 296, 310
122, 128, 274, 373, 375
123, 248, 246, 245, 247
124, 156, 163, 169, 155
125, 296, 184, 315, 310
126, 190, 207, 313, 191
127, 141, 140, 307, 142
128, 211, 168, 167, 165
129, 143, 142, 307, 144
130, 176, 130, 179, 177
131, 207, 190, 314, 232
132, 178, 191, 237, 205
133, 299, 310, 315, 211
134, 146, 300, 312, 308
135, 171, 169, 163, 170
136, 199, 173, 144, 194
137, 164, 303, 170, 163
138, 166, 185, 315, 184
139, 155, 169, 312, 300
140, 63, 258, 259, 13
141, 43, 256, 257, 5
142, 190, 177, 179, 314
143, 135, 119, 186, 136
144, 168, 211, 315, 316
145, 235, 172, 171, 170
146, 174, 193, 212, 206
147, 314, 179, 396, 284
148, 137, 134, 139, 138
149, 183, 200, 201, 189
150, 138, 139, 161, 140
151, 103, 260, 261, 29
152, 89, 24, 216, 215
153, 61, 62, 326, 121
154, 41, 42, 327, 122
155, 205, 237, 272, 238
156, 242, 243, 244, 115
157, 172, 320, 233, 187
158, 182, 183, 189, 188
159, 250, 249, 246, 248
160, 157, 154, 319, 158
161, 329, 343, 275, 114
162, 182, 168, 316, 183
163, 167, 372, 254, 281
164, 140, 161, 317, 307
165, 144, 307, 317, 194
166, 294, 230, 229, 231
167, 133, 117, 321, 134
168, 172, 174, 318, 171
169, 230, 196, 195, 229
170, 308, 312, 318, 213
171, 375, 373, 228, 212
172, 181, 136, 322, 192
173, 172, 187, 193, 174
174, 196, 161, 139, 195
175, 169, 171, 318, 312
176, 233, 203, 193, 187
177, 399, 209, 406, 279
178, 115, 244, 350, 290
179, 174, 206, 324, 318
180, 316, 315, 185, 323
181, 247, 245, 397, 280
182, 188, 208, 372, 182
183, 336, 124, 102, 342
184, 173, 199, 398, 210
185, 183, 316, 323, 200
186, 381, 328, 326, 259
187, 175, 213, 318, 324
188, 208, 348, 241, 338
189, 79, 266, 365, 78
190, 59, 265, 368, 58
191, 55, 225, 363, 54
192, 49, 214, 357, 48
193, 4, 220, 370, 39
194, 45, 262, 352, 44
195, 28, 223, 366, 99
196, 65, 263, 353, 64
197, 75, 226, 364, 74
198, 105, 264, 354, 104
199, 83, 84, 361, 267
200, 69, 217, 358, 68
201, 109, 218, 359, 108
202, 87, 88, 351, 219
203, 320, 322, 136, 186
204, 373, 291, 344, 228
205, 336, 342, 261, 292
206, 314, 284, 285, 232
207, 134, 321, 195, 139
208, 197, 305, 374, 286
209, 291, 373, 274, 113
210, 197, 198, 383, 180
211, 131, 333, 379, 20
212, 33, 380, 334, 1
213, 129, 332, 378, 12
214, 93, 377, 335, 25
215, 268, 121, 340, 283
216, 91, 127, 337, 90
217, 192, 254, 338, 181
218, 236, 389, 216, 337
219, 138, 311, 390, 137
220, 257, 382, 276, 330
221, 395, 336, 203, 233
222, 228, 344, 175, 324
223, 119, 287, 395, 186
224, 251, 284, 396, 253
225, 271, 255, 399, 279
226, 271, 279, 406, 127
227, 245, 246, 350, 244
228, 249, 250, 391, 252
229, 161, 196, 339, 317
230, 282, 347, 193, 203
231, 188, 255, 348, 208
232, 180, 132, 425, 197
233, 394, 289, 400, 234
234, 204, 272, 237, 401
235, 381, 277, 371, 328
236, 194, 317, 339, 204
237, 178, 205, 329, 376
238, 141, 175, 344, 311
239, 114, 240, 376, 329
240, 270, 389, 236, 331
241, 200, 323, 374, 202
242, 398, 199, 401, 313
243, 396, 283, 391, 253
244, 365, 226, 409, 419
245, 361, 418, 411, 219
246, 357, 262, 414, 415
247, 368, 225, 412, 422
248, 369, 227, 413, 421
249, 362, 224, 410, 420
250, 358, 263, 407, 416
251, 359, 264, 408, 417
252, 309, 325, 426, 160
253, 66, 15, 67, 416
254, 106, 31, 107, 417
255, 86, 418, 85, 22
256, 46, 7, 47, 415
257, 56, 11, 57, 422
258, 36, 3, 37, 420
259, 96, 27, 97, 421
260, 76, 19, 77, 419
261, 125, 345, 273, 294
262, 201, 209, 399, 189
263, 194, 204, 401, 199
264, 181, 338, 241, 386
265, 285, 319, 426, 232
266, 125, 294, 231, 349
267, 234, 236, 406, 209
268, 222, 73, 74, 364
269, 221, 53, 54, 363
270, 214, 49, 8, 367
271, 267, 360, 21, 83
272, 215, 351, 88, 89
273, 217, 69, 16, 355
274, 218, 109, 32, 356
275, 256, 43, 44, 352
276, 258, 63, 64, 353
277, 260, 103, 104, 354
278, 362, 38, 39, 370
279, 99, 366, 369, 98
280, 254, 192, 392, 281
281, 200, 202, 394, 201
282, 164, 281, 392, 303
283, 168, 182, 372, 167
284, 209, 201, 394, 234
285, 235, 392, 192, 322
286, 236, 234, 400, 331
287, 196, 230, 423, 339
288, 1, 334, 385, 239
289, 404, 332, 129, 387
290, 25, 335, 386, 241
291, 405, 333, 131, 388
292, 277, 381, 355, 16
293, 177, 178, 376, 176
294, 276, 382, 367, 8
295, 94, 298, 377, 93
296, 34, 297, 380, 33
297, 12, 378, 265, 59
298, 20, 379, 266, 79
299, 278, 384, 356, 32
300, 134, 137, 385, 133
301, 130, 176, 387, 129
302, 136, 181, 386, 135
303, 113, 239, 390, 291
304, 240, 387, 176, 376
305, 286, 374, 323, 185
306, 257, 330, 393, 327
307, 170, 303, 392, 235
308, 244, 243, 397, 245
309, 251, 253, 391, 250
310, 130, 295, 396, 179
311, 197, 425, 341, 305
312, 133, 402, 220, 4
313, 53, 221, 404, 9
314, 135, 403, 223, 28
315, 73, 222, 405, 17
316, 125, 349, 330, 276
317, 198, 397, 243, 383
318, 309, 210, 398, 325
319, 270, 21, 360, 389
320, 23, 87, 219, 411
321, 6, 414, 262, 45
322, 14, 407, 263, 65
323, 30, 408, 264, 105
324, 10, 412, 225, 55
325, 26, 413, 227, 95
326, 18, 409, 226, 75
327, 2, 410, 224, 35
328, 191, 313, 401, 237
329, 249, 252, 371, 424
330, 255, 188, 189, 399
331, 346, 122, 327, 393
332, 289, 341, 425, 132
333, 204, 339, 423, 272
334, 9, 404, 387, 240
335, 335, 403, 135, 386
336, 334, 402, 133, 385
337, 17, 405, 388, 242
338, 238, 272, 423, 273
339, 313, 207, 325, 398
340, 154, 160, 426, 319
341, 193, 347, 375, 212
342, 252, 391, 283, 340
343, 377, 223, 403, 335
344, 380, 220, 402, 334
345, 378, 332, 404, 221
346, 379, 333, 405, 222
347, 202, 341, 289, 394
348, 270, 331, 400, 123
349, 68, 358, 416, 67
350, 108, 359, 417, 107
351, 84, 85, 418, 361
352, 48, 357, 415, 47
353, 38, 362, 420, 37
354, 58, 368, 422, 57
355, 78, 365, 419, 77
356, 98, 369, 421, 97
357, 243, 242, 388, 383
358, 131, 180, 383, 388
359, 239, 385, 137, 390
360, 277, 126, 424, 371
361, 246, 249, 424, 350
362, 2, 36, 420, 410
363, 10, 56, 422, 412
364, 18, 76, 419, 409
365, 26, 96, 421, 413
366, 6, 46, 415, 414
367, 23, 411, 418, 86
368, 14, 66, 416, 407
369, 30, 106, 417, 408
*ELSET,ELSET=S
5, 6, 
*ELSET,ELSET=SE
19, 20, 
*ELSET,ELSET=E
33, 34, 
*ELSET,ELSET=NE
47, 48, 
*ELSET,ELSET=N
61, 62, 
*ELSET,ELSET=NW
75, 76, 
*ELSET,ELSET=W
89, 90, 
*ELSET,ELSET=SW
103, 104, 
*ELSET,ELSET=walls
1, 2, 3, 4, 7, 8, 9, 10, 11, 12, 
13, 14, 15, 16, 17, 18, 21, 22, 23, 24, 
25, 26, 27, 28, 29, 30, 31, 32, 35, 36, 
37, 38, 39, 40, 41, 42, 43, 44, 45, 46, 
49, 50, 51, 52, 53, 54, 55, 56, 57, 58, 
59, 60, 63, 64, 65, 66, 67, 68, 69, 70, 
71, 72, 73, 74, 77, 78, 79, 80, 81, 82, 
83, 84, 85, 86, 87, 88, 91, 92, 93, 94, 
95, 96, 97, 98, 99, 100, 101, 102, 105, 106, 
107, 108, 109, 110, 111, 112, 
*ELSET,ELSET=domain
113, 114, 115, 116, 117, 118, 119, 120, 121, 122, 
123, 124, 125, 126, 127, 128, 129, 130, 131, 132, 
133, 134, 135, 136, 137, 138, 139, 140, 141, 142, 
143, 144, 145, 146, 147, 148, 149, 150, 151, 152, 
153, 154, 155, 156, 157, 158, 159, 160, 161, 162, 
163, 164, 165, 166, 167, 168, 169, 170, 171, 172, 
173, 174, 175, 176, 177, 178, 179, 180, 181, 182, 
183, 184, 185, 186, 187, 188, 189, 190, 191, 192, 
193, 194, 195, 196, 197, 198, 199, 200, 201, 202, 
203, 204, 205, 206, 207, 208, 209, 210, 211, 212, 
213, 214, 215, 216, 217, 218, 219, 220, 221, 222, 
223, 224, 225, 226, 227, 228, 229, 230, 231, 232, 
233, 234, 235, 236, 237, 238, 239, 240, 241, 242, 
243, 244, 245, 246, 247, 248, 249, 250, 251, 252, 
253, 254, 255, 256, 257, 258, 259, 260, 261, 262, 
263, 264, 265, 266, 267, 268, 269, 270, 271, 272, 
273, 274, 275, 276, 277, 278, 279, 280, 281, 282, 
283, 284, 285, 286, 287, 288, 289, 290, 291, 292, 
293, 294, 295, 296, 297, 298, 299, 300, 301, 302, 
303, 304, 305, 306, 307, 308, 309, 310, 311, 312, 
313, 314, 315, 316, 317, 318, 319, 320, 321, 322, 
323, 324, 325, 326, 327, 328, 329, 330, 331, 332, 
333, 334, 335, 336, 337, 338, 339, 340, 341, 342, 
343, 344, 345, 346, 347, 348, 349, 350, 351, 352, 
353, 354, 355, 356, 357, 358, 359, 360, 361, 362, 
363, 364, 365, 366, 367, 368, 369, 370, 371, 372, 
373, 374, 375, 376, 377, 378, 379, 380, 381, 382, 
383, 384, 385, 386, 387, 388, 389, 390, 391, 392, 
393, 394, 395, 396, 397, 398, 399, 400, 401, 402, 
403, 404, 405, 406, 407, 408, 409, 410, 411, 412, 
413, 414, 415, 416, 417, 418, 419, 420, 421, 422, 
423, 424, 425, 426, 427, 428, 429, 430, 431, 432, 
433, 434, 435, 436, 437, 438, 439, 440, 441, 442, 
443, 444, 445, 446, 447, 448, 449, 450, 451, 452, 
453, 454, 455, 456, 457, 458, 459, 460, 461, 462, 
463, 464, 465, 466, 467, 468, 469, 470, 471, 472, 
473, 474, 475, 476, 477, 478, 479, 480, 481, 
*NSET,NSET=S
2, 3, 36, 
*NSET,NSET=SE
6, 7, 46, 
*NSET,NSET=E
10, 11, 56, 
*NSET,NSET=NE
14, 15, 66, 
*NSET,NSET=N
18, 19, 76, 
*NSET,NSET=NW
22, 23, 86, 
*NSET,NSET=W
26, 27, 96, 
*NSET,NSET=SW
30, 31, 106, 
*NSET,NSET=walls
1, 2, 3, 4, 5, 6, 7, 8, 9, 10, 
11, 12, 13, 14, 15, 16, 17, 18, 19, 20, 
21, 22, 23, 24, 25, 26, 27, 28, 29, 30, 
31, 32, 33, 34, 35, 37, 38, 39, 40, 41, 
42, 43, 44, 45, 47, 48, 49, 50, 51, 52, 
53, 54, 55, 57, 58, 59, 60, 61, 62, 63, 
64, 65, 67, 68, 69, 70, 71, 72, 73, 74, 
75, 77, 78, 79, 80, 81, 82, 83, 84, 85, 
87, 88, 89, 90, 91, 92, 93, 94, 95, 97, 
98, 99, 100, 101, 102, 103, 104, 105, 107, 108, 
109, 110, 111, 112, 
*NSET,NSET=domain
1, 2, 3, 4, 5, 6, 7, 8, 9, 10, 
11, 12, 13, 14, 15, 16, 17, 18, 19, 20, 
21, 22, 23, 24, 25, 26, 27, 28, 29, 30, 
31, 32, 33, 34, 35, 36, 37, 38, 39, 40, 
41, 42, 43, 44, 45, 46, 47, 48, 49, 50, 
51, 52, 53, 54, 55, 56, 57, 58, 59, 60, 
61, 62, 63, 64, 65, 66, 67, 68, 69, 70, 
71, 72, 73, 74, 75, 76, 77, 78, 79, 80, 
81, 82, 83, 84, 85, 86, 87, 88, 89, 90, 
91, 92, 93, 94, 95, 96, 97, 98, 99, 100, 
101, 102, 103, 104, 105, 106, 107, 108, 109, 110, 
111, 112, 113, 114, 115, 116, 117, 118, 119, 120, 
121, 122, 123, 124, 125, 126, 127, 128, 129, 130, 
131, 132, 133, 134, 135, 136, 137, 138, 139, 140, 
141, 142, 143, 144, 145, 146, 147, 148, 149, 150, 
151, 152, 153, 154, 155, 156, 157, 158, 159, 160, 
161, 162, 163, 164, 165, 166, 167, 168, 169, 170, 
171, 172, 173, 174, 175, 176, 177, 178, 179, 180, 
181, 182, 183, 184, 185, 186, 187, 188, 189, 190, 
191, 192, 193, 194, 195, 196, 197, 198, 199, 200, 
201, 202, 203, 204, 205, 206, 207, 208, 209, 210, 
211, 212, 213, 214, 215, 216, 217, 218, 219, 220, 
221, 222, 223, 224, 225, 226, 227, 228, 229, 230, 
231, 232, 233, 234, 235, 236, 237, 238, 239, 240, 
241, 242, 243, 244, 245, 246, 247, 248, 249, 250, 
251, 252, 253, 254, 255, 256, 257, 258, 259, 260, 
261, 262, 263, 264, 265, 266, 267, 268, 269, 270, 
271, 272, 273, 274, 275, 276, 277, 278, 279, 280, 
281, 282, 283, 284, 285, 286, 287, 288, 289, 290, 
291, 292, 293, 294, 295, 296, 297, 298, 299, 300, 
301, 302, 303, 304, 305, 306, 307, 308, 309, 310, 
311, 312, 313, 314, 315, 316, 317, 318, 319, 320, 
321, 322, 323, 324, 325, 326, 327, 328, 329, 330, 
331, 332, 333, 334, 335, 336, 337, 338, 339, 340, 
341, 342, 343, 344, 345, 346, 347, 348, 349, 350, 
351, 352, 353, 354, 355, 356, 357, 358, 359, 360, 
361, 362, 363, 364, 365, 366, 367, 368, 369, 370, 
371, 372, 373, 374, 375, 376, 377, 378, 379, 380, 
381, 382, 383, 384, 385, 386, 387, 388, 389, 390, 
391, 392, 393, 394, 395, 396, 397, 398, 399, 400, 
401, 402, 403, 404, 405, 406, 407, 408, 409, 410, 
411, 412, 413, 414, 415, 416, 417, 418, 419, 420, 
421, 422, 423, 424, 425, 426, 
